# npp, phi, ar, vr 
# 1000 0.76 1.4 0.5

#Virial stress tensor components per particle

# 0   : Particle index
# 1-4 : Contact stress tensor elements (sigma_xx, sigma_xy, sigma_yx, sigma_yy)
# 5-8 : Lubrication stress tensor elements (sigma_xx, sigma_xy, sigma_yx, sigma_yy)
# 9-12: Total stress tensor elements (sigma_xx, sigma_xy, sigma_yx, sigma_yy)

#cumulative strain = 0.010.0 -5.832472787176284 -8.270948321171147 4.231001916815089 -35.645453912334055 0.0 0.0 0.0 0.0 0.0 0.0 0.0 0.0
1.0 0.0 0.0 0.0 0.0 -0.045661005409093625 -0.03294024580013044 0.017814522157130204 0.0063968945158056805 -0.045661005409093625 -0.03294024580013044 0.017814522157130204 0.0063968945158056805
2.0 -0.04529872199007995 -0.010359314925025249 -0.008566529655493142 -0.02667581037982623 -0.07994258352709581 -0.014316154405563674 -0.0662873723566501 3.820805583160808e-06 -0.07994258352709581 -0.014316154405563674 -0.0662873723566501 3.820805583160808e-06
3.0 -0.018429967420588764 -0.042061369965383164 -0.038436247274212604 -0.1051847448123529 -0.8920212526320216 0.7872491210021402 0.7471719935235067 -0.6633855840456198 -0.8920212526320216 0.7872491210021402 0.7471719935235067 -0.6633855840456198
4.0 -0.2371944530371739 -0.04427311381150223 -0.024150243802384022 -0.2997545179397135 0.00486795544412487 -0.01725206506957907 0.005205087319427144 -0.01844686258087586 0.00486795544412487 -0.01725206506957907 0.005205087319427144 -0.01844686258087586
5.0 -1.8193021287833546 -3.0551821233726173 -0.9520468157873142 -3.0464734481098072 0.0 0.0 0.0 0.0 0.0 0.0 0.0 0.0
6.0 0.0 0.0 0.0 0.0 0.19507297792155082 0.5768490373498661 0.5775906648771248 0.6313641202782929 0.19507297792155082 0.5768490373498661 0.5775906648771248 0.6313641202782929
7.0 0.0 0.0 0.0 0.0 -0.04443883548858271 -0.007181890990229612 0.05043713084918855 -0.21836141890530622 -0.04443883548858271 -0.007181890990229612 0.05043713084918855 -0.21836141890530622
8.0 -1.6956217378611913 3.6486192104320776 3.664391187823389 -10.044164322149552 0.0 0.0 0.0 0.0 0.0 0.0 0.0 0.0
9.0 -0.44250215420307604 0.3967778545793759 1.918607868962201 -4.36532110784424 -0.006337059532570181 -0.0034349973563467385 -0.005925104031589562 -0.003211697251695994 -0.006337059532570181 -0.0034349973563467385 -0.005925104031589562 -0.003211697251695994
10.0 -24.535280672236123 -3.5024929624721692 -1.361415492290749 -9.703823956652794 -0.0005073022000358414 -0.001896190366300469 -0.0004191637227668854 -0.001566747025652667 -0.0005073022000358414 -0.001896190366300469 -0.0004191637227668854 -0.001566747025652667
11.0 -7.678782646462282 5.860138858834718 1.0781752029741372 -5.770699408834984 0.0 0.0 0.0 0.0 0.0 0.0 0.0 0.0
12.0 -3.2774408578779184 0.7249153216225338 1.0000716759424146 -2.5689447785351676 0.0003115498944008348 0.0003573112327426241 0.0007038267854083853 0.0004714182917451016 0.0003115498944008348 0.0003573112327426241 0.0007038267854083853 0.0004714182917451016
13.0 -3.688079587075899 -5.368888679905235 -7.40328464678173 -10.913777186668305 0.6233555903906574 -0.15808105528057279 -0.31178503894661314 0.07795658217924552 0.6233555903906574 -0.15808105528057279 -0.31178503894661314 0.07795658217924552
14.0 -231.40035722121894 -379.0430035487285 -37.29902823254192 -66.84741776641192 2.3342346978713864 -6.830305763690725 -5.886874005725401 17.22583829642086 2.3342346978713864 -6.830305763690725 -5.886874005725401 17.22583829642086
15.0 0.0 0.0 0.0 0.0 -0.0946582284726612 -0.29100920928568075 -0.0850436441916631 0.318901626661743 -0.0946582284726612 -0.29100920928568075 -0.0850436441916631 0.318901626661743
16.0 -17.811814369991747 13.058591107538977 12.125728241703792 -8.96371657833838 0.02894624814618535 0.009067813669311666 0.015973773883666435 0.0040388694371827835 0.02894624814618535 0.009067813669311666 0.015973773883666435 0.0040388694371827835
17.0 -0.22279732918513695 0.131978319565356 0.13014971056623012 -0.07746307753205522 0.0018042275238137802 0.0006822836522177246 0.0004729867950833629 0.00020970175923137405 0.0018042275238137802 0.0006822836522177246 0.0004729867950833629 0.00020970175923137405
18.0 0.0 0.0 0.0 0.0 0.0025453816548406043 -0.010218006209568555 0.0017937437728817412 -0.01349109253725756 0.0025453816548406043 -0.010218006209568555 0.0017937437728817412 -0.01349109253725756
19.0 0.0 0.0 0.0 0.0 -0.008461842889979405 -0.021510720336302407 -0.024354580295279968 -0.12869809864116727 -0.008461842889979405 -0.021510720336302407 -0.024354580295279968 -0.12869809864116727
20.0 0.0008485823776362526 7.359089174902882e-05 -0.0010691629731007667 -9.272011614793988e-05 0.22053013461988435 0.47222707474906306 0.46603200458722666 0.9944655554079773 0.22053013461988435 0.47222707474906306 0.46603200458722666 0.9944655554079773
21.0 0.0 0.0 0.0 0.0 -3.0635494533605234 6.486419873738245 3.8320311366957425 -8.250027075964876 -3.0635494533605234 6.486419873738245 3.8320311366957425 -8.250027075964876
22.0 -11.201714005534642 6.502142328105571 0.904568234237229 -1.8177308300098987 0.0008696864208960383 0.0013805190983066317 0.0011988516230285317 0.001903027944165903 0.0008696864208960383 0.0013805190983066317 0.0011988516230285317 0.001903027944165903
23.0 -7.0808090058533155 17.427120958719023 8.4590218133374 -38.90156834075766 3.4457765588701634 -3.0291174002920713 1.4380160977671945 -1.2440082196444762 3.4457765588701634 -3.0291174002920713 1.4380160977671945 -1.2440082196444762
24.0 -3.8730984044104564 12.061689627708311 1.8201804214729675 -5.400849457657545 0.004816589569230741 0.005470508956641093 0.0036625383331304845 0.004425022996938571 0.004816589569230741 0.005470508956641093 0.0036625383331304845 0.004425022996938571
25.0 0.0 0.0 0.0 0.0 0.010388699922878379 -0.015490704384366977 0.00964936469680062 -0.006492503107581596 0.010388699922878379 -0.015490704384366977 0.00964936469680062 -0.006492503107581596
26.0 0.0 0.0 0.0 0.0 -0.01360566470251844 -0.01184553700680196 -0.007983761992704843 -0.016345301800880917 -0.01360566470251844 -0.01184553700680196 -0.007983761992704843 -0.016345301800880917
27.0 -7.548690222055609 11.381910855354011 19.26099660439697 -30.228228328674557 -0.14121040745962085 -0.06479312511451381 -0.1608626924023638 -0.07381039926582116 -0.14121040745962085 -0.06479312511451381 -0.1608626924023638 -0.07381039926582116
28.0 -3.3610562607721004 -1.368489089303613 -3.1281965153513775 -3.330625992869758 0.07554682493501215 -0.04679873452700604 -0.03954177261867161 0.02235586091434645 0.07554682493501215 -0.04679873452700604 -0.03954177261867161 0.02235586091434645
29.0 -15.60835174207092 22.293223457862183 25.10990659529651 -36.10292904558369 0.1719451049569309 0.3617239570223475 0.315374529740786 0.6653335829787973 0.1719451049569309 0.3617239570223475 0.315374529740786 0.6653335829787973
30.0 -24.50950963458811 -2.194869454645013 -5.833116365913341 -15.798616545054788 0.0 0.0 0.0 0.0 0.0 0.0 0.0 0.0
31.0 0.0 0.0 0.0 0.0 0.17087602941710278 0.029278885514515515 0.09870787842959061 0.10543263001472766 0.17087602941710278 0.029278885514515515 0.09870787842959061 0.10543263001472766
32.0 0.0 0.0 0.0 0.0 -0.06922888573553065 0.14802321043340522 0.09269475322130628 -0.11097558029211815 -0.06922888573553065 0.14802321043340522 0.09269475322130628 -0.11097558029211815
33.0 0.0 0.0 0.0 0.0 0.0028535074302966632 0.017091420453576728 0.018971417193161248 -0.015222573045669135 0.0028535074302966632 0.017091420453576728 0.018971417193161248 -0.015222573045669135
34.0 -4.748828546741887 2.6205098478941333 0.8930492535651274 -0.7100383947641573 0.00041777363480122843 0.0007521873413968509 0.0005055648733908781 0.0009102525060023294 0.00041777363480122843 0.0007521873413968509 0.0005055648733908781 0.0009102525060023294
35.0 0.19377425776340806 -1.4417538923129367 1.9092252050581362 -5.690857159242041 -0.0004214451653610252 1.331525046433484e-05 0.0004345885965472813 -1.3730507519320465e-05 -0.0004214451653610252 1.331525046433484e-05 0.0004345885965472813 -1.3730507519320465e-05
36.0 0.0 0.0 0.0 0.0 -0.09043592993524117 0.07541769571765368 0.07966362993222179 -0.025693397294770767 -0.09043592993524117 0.07541769571765368 0.07966362993222179 -0.025693397294770767
37.0 -3.1878147110581887 -31.032574015750413 -5.327557944401059 -47.781209826015875 0.0 0.0 0.0 0.0 0.0 0.0 0.0 0.0
38.0 -11.461757291504902 14.761335841546433 14.779433020655974 -19.895165849726666 0.34259141378890584 -0.033570864350336446 0.18737296786522734 -0.04527076333871718 0.34259141378890584 -0.033570864350336446 0.18737296786522734 -0.04527076333871718
39.0 -68.87578471510766 1.548310536874629 -16.31134706234471 -9.47988642839119 0.0 0.0 0.0 0.0 0.0 0.0 0.0 0.0
40.0 -1742.9151201351522 478.5723749772654 281.0211653624643 -87.8278967510596 3.8384270605117283 4.017751225180765 3.021877471038614 4.237033937079646 3.8384270605117283 4.017751225180765 3.021877471038614 4.237033937079646
41.0 -0.14049597040593353 0.009793302927489825 0.02506775506187052 -0.12935575432458288 -0.1523617349403439 0.12456457885652926 0.07983177663616285 -0.06710143194501818 -0.1523617349403439 0.12456457885652926 0.07983177663616285 -0.06710143194501818
42.0 0.0 0.0 0.0 0.0 0.014893102704359956 -0.022652526089158777 0.1319075405576709 -0.09634367364838398 0.014893102704359956 -0.022652526089158777 0.1319075405576709 -0.09634367364838398
43.0 -21.65240180588394 21.738904630206477 16.50666446954508 -17.592776796727048 0.0558198556207496 0.172891565493999 0.15147697597859255 0.453247644740199 0.0558198556207496 0.172891565493999 0.15147697597859255 0.453247644740199
44.0 -20.085389212764813 20.891090311626744 19.868978007297297 -22.981513543533154 0.0 0.0 0.0 0.0 0.0 0.0 0.0 0.0
45.0 -4.871509456106738 7.399480176339342 20.099542976653492 -32.94274162006437 -0.0005906031709346016 0.00470931169203365 -0.0012249863584444475 -0.018168028832854836 -0.0005906031709346016 0.00470931169203365 -0.0012249863584444475 -0.018168028832854836
46.0 -31.630780251735416 -2.793101610821239 -14.276907413893355 -18.761156567599706 0.00871137921225894 -0.01039948228834327 -0.002043765819133309 0.0016646686093812557 0.00871137921225894 -0.01039948228834327 -0.002043765819133309 0.0016646686093812557
47.0 -7.8398114657544955 6.033444131890948 7.146887740447264 -5.5101681201059645 -0.0024687972343655166 -0.0017952776380620668 -0.0020784939190518536 -0.0012675362450119958 -0.0024687972343655166 -0.0017952776380620668 -0.0020784939190518536 -0.0012675362450119958
48.0 0.0 0.0 0.0 0.0 -0.06417869598590427 0.007798130579825209 -0.04441761366557932 0.0057130811861370815 -0.06417869598590427 0.007798130579825209 -0.04441761366557932 0.0057130811861370815
49.0 -4.96386332740969 21.65199231896599 5.306425470627456 -32.79905074415126 0.0 0.0 0.0 0.0 0.0 0.0 0.0 0.0
50.0 -266.96391167023154 412.24759503157685 384.2043386665433 -594.2058285290782 -0.07672663457879858 -0.13002345458968237 0.23218669399693653 0.39625427517768946 -0.07672663457879858 -0.13002345458968237 0.23218669399693653 0.39625427517768946
51.0 -0.01604642589047981 0.06370766780822439 0.0806927205566419 -0.4749360319879739 -0.15687192447388162 0.02890320985099597 -0.06934732918695767 0.05021870726536501 -0.15687192447388162 0.02890320985099597 -0.06934732918695767 0.05021870726536501
52.0 -1.7497009333762383 1.5156630000266582 4.818666010583146 -6.008741457613237 -0.057028618664335846 0.08424925738504728 0.1860011854919475 -0.20556355848942878 -0.057028618664335846 0.08424925738504728 0.1860011854919475 -0.20556355848942878
53.0 -23.33650107686877 -9.492844492268485 -10.168556022541248 -26.46516958766379 0.0 0.0 0.0 0.0 0.0 0.0 0.0 0.0
54.0 0.0 0.0 0.0 0.0 0.010210412563010913 0.0068149995448779244 0.011597151549666678 0.009267797902798452 0.010210412563010913 0.0068149995448779244 0.011597151549666678 0.009267797902798452
55.0 -10.552018438156733 -21.703250665362624 7.135576850085753 -48.79295893849576 0.0 0.0 0.0 0.0 0.0 0.0 0.0 0.0
56.0 -13.714378584146411 14.341907432325664 14.2554020415729 -14.907804846074345 0.014338761198583882 0.008627122776176272 0.0036225157615485263 0.002179538929527559 0.014338761198583882 0.008627122776176272 0.0036225157615485263 0.002179538929527559
57.0 -2.922883379958728 13.474530287836606 4.685588504616997 -26.932456491522384 -0.007611010427645865 0.013430632773772407 0.013942347689899392 -0.02460311329322561 -0.007611010427645865 0.013430632773772407 0.013942347689899392 -0.02460311329322561
58.0 -0.12171474996030009 0.0005151002405866555 0.007309911985485297 -3.0935752845229524e-05 -1.5519689403306114 0.2281832042709285 0.19794043927532215 0.09726024034278778 -1.5519689403306114 0.2281832042709285 0.19794043927532215 0.09726024034278778
59.0 -0.13508380258105582 -0.01991263132332779 0.08517090343160891 -0.054759217110650564 3.555358727824462e-05 3.459103632596935e-06 -0.0001811781285411617 -1.762730488147776e-05 3.555358727824462e-05 3.459103632596935e-06 -0.0001811781285411617 -1.762730488147776e-05
60.0 -8.141314356616123 0.7039180636571847 -0.3857094667700328 0.020753137103741347 -0.19822644284609917 0.20087523059523027 0.22615628364349238 -0.2285542846972632 -0.19822644284609917 0.20087523059523027 0.22615628364349238 -0.2285542846972632
61.0 -0.34468832541192906 0.03375173937799296 -0.01960024391399004 -0.046970448590275916 0.0843558525335938 -0.32777857788075543 -0.14280346727921273 0.6010741002489289 0.0843558525335938 -0.32777857788075543 -0.14280346727921273 0.6010741002489289
62.0 -645.1304223413955 -1507.4032747415308 -575.4612345277509 -1320.6210612580853 0.15524888561565633 -0.10546410974465133 -0.12972364082690616 0.08812422864351215 0.15524888561565633 -0.10546410974465133 -0.12972364082690616 0.08812422864351215
63.0 -34.36959906800955 14.932631236704815 12.279356485084424 -26.93090670479014 0.0 0.0 0.0 0.0 0.0 0.0 0.0 0.0
64.0 -25.68027086195549 34.76706755831796 127.1623177922055 -314.5809003429112 0.012542207463667096 0.036598274977179795 0.022829040862761028 0.06951325851261778 0.012542207463667096 0.036598274977179795 0.022829040862761028 0.06951325851261778
65.0 -4.902625675142508 0.657960626296875 0.509075757329112 -0.2167275745891555 0.0 0.0 0.0 0.0 0.0 0.0 0.0 0.0
66.0 0.0 0.0 0.0 0.0 -0.016834829847298526 0.016928883238587107 0.026329005863113313 -0.03013311581281196 -0.016834829847298526 0.016928883238587107 0.026329005863113313 -0.03013311581281196
67.0 0.19073682097439823 0.4352489132450097 -1.0348843346650212 -2.1452745598217615 0.028034561027031665 -0.06925948888681739 -0.09505081566412597 0.29346358937724504 0.028034561027031665 -0.06925948888681739 -0.09505081566412597 0.29346358937724504
68.0 -4.646500084345918 4.1622702115984405 3.5993809046854133 -3.707462185710262 -0.00032212523279136337 -0.0011771448936427824 0.00048096872456343423 -0.00015441546107559625 -0.00032212523279136337 -0.0011771448936427824 0.00048096872456343423 -0.00015441546107559625
69.0 -4.484039085293976 1.7242641928726208 2.238900495034116 -18.46390084883312 0.001071101575630471 0.0003549980672397601 0.00013728953034449005 0.00018304112921530355 0.001071101575630471 0.0003549980672397601 0.00013728953034449005 0.00018304112921530355
70.0 -5.110877817428528 7.424185113700002 4.530530014691136 -8.00107067736076 1.982706872618691 3.172253185472047 3.012249032328914 4.81948023694484 1.982706872618691 3.172253185472047 3.012249032328914 4.81948023694484
71.0 -1.752563308711567 1.81081905811618 1.0311376315177223 -2.2695153092397753 -0.00038298491023040505 0.00011712927603782007 2.4999784270316037e-05 -7.645749361044485e-06 -0.00038298491023040505 0.00011712927603782007 2.4999784270316037e-05 -7.645749361044485e-06
72.0 -14.637940905634878 4.393763174196013 5.006901941689225 -3.6515808945723878 -1.8187715297994227e-05 8.350321689298308e-05 0.00032640759865582014 -0.0014985985902847608 -1.8187715297994227e-05 8.350321689298308e-05 0.00032640759865582014 -0.0014985985902847608
73.0 -1.1519320360441545 4.22421466017626 3.5277268555616113 -13.256776182064659 -0.00960718346308263 -0.005207337382290401 -0.0024058771130465576 -0.0010780908554994376 -0.00960718346308263 -0.005207337382290401 -0.0024058771130465576 -0.0010780908554994376
74.0 -27.986318266844165 -19.98119661003973 -0.8228555998646249 -0.8308565375765602 0.14427828202835422 -0.16820990551520223 0.7354388647908002 -0.8574270515250273 0.14427828202835422 -0.16820990551520223 0.7354388647908002 -0.8574270515250273
75.0 -33.245888264148164 16.43632689193927 -2.022315365588585 -10.860166882492557 -0.004612363662928595 0.0749000498381486 0.0024471002484719724 -0.039738395314024066 -0.004612363662928595 0.0749000498381486 0.0024471002484719724 -0.039738395314024066
76.0 0.0 0.0 0.0 0.0 0.11025129798142502 0.09115912394898097 0.06803307714241545 0.055805232021425635 0.11025129798142502 0.09115912394898097 0.06803307714241545 0.055805232021425635
77.0 -6.741410360364945 -6.6049507446545235 -11.879606304115581 -15.369948308795353 -0.0026771486584400827 0.001223177309455953 -0.036473214553844474 0.0017126052992488992 -0.0026771486584400827 0.001223177309455953 -0.036473214553844474 0.0017126052992488992
78.0 -6.431534779982477 -25.345977019022737 -27.79604887084881 -109.57384224525981 0.004443121287202611 -0.0011874050503639453 -0.0024540939882069382 0.0006558460612042783 0.004443121287202611 -0.0011874050503639453 -0.0024540939882069382 0.0006558460612042783
79.0 -41.13904959248804 5.4046934039649575 16.41655975521971 -10.069107451545008 -9.601730259780659e-05 -0.0002272633390498046 -0.0008753344580399607 -0.0035419927283627203 -9.601730259780659e-05 -0.0002272633390498046 -0.0008753344580399607 -0.0035419927283627203
80.0 0.0 0.0 0.0 0.0 0.02720519311250448 0.009260170937830721 0.020645637099862692 0.003428867278141158 0.02720519311250448 0.009260170937830721 0.020645637099862692 0.003428867278141158
81.0 -0.05963379304118425 -0.02146934905278785 -0.0052716056130897235 -0.0921701503114233 0.06557478676415085 -0.08333878790343884 -0.16819502744344259 0.21599030482904988 0.06557478676415085 -0.08333878790343884 -0.16819502744344259 0.21599030482904988
82.0 -2.9979558375658386 2.181050670939624 2.59734240204817 -3.8993289856501976 -0.03145589987167367 -0.0050187818007729436 -0.006891516607296467 -0.0010995399358951397 -0.03145589987167367 -0.0050187818007729436 -0.006891516607296467 -0.0010995399358951397
83.0 -0.15704855242470833 0.151850248348125 0.19734577816135548 -0.19359176438564435 0.005539539024977518 0.007959132605798131 0.005382738877660167 0.00797372853576903 0.005539539024977518 0.007959132605798131 0.005382738877660167 0.00797372853576903
84.0 -4.282203519887894 5.012422942990947 2.435889824981133 -3.6769832614602276 -0.09888118006184211 -0.02884992410521999 -0.03762282072495644 -0.011303644006993529 -0.09888118006184211 -0.02884992410521999 -0.03762282072495644 -0.011303644006993529
85.0 -0.010452655501416766 -0.0009526259987263811 -0.005769452253152159 -0.0005258118584333227 -0.18141863552917512 -0.20174475028765526 0.21538615725170132 0.5286646191268812 -0.18141863552917512 -0.20174475028765526 0.21538615725170132 0.5286646191268812
86.0 -6.4834698031904345 6.333272043982293 0.6326555579277919 -0.5798799713303908 -0.00010968891394516054 -0.00010025231937057216 0.0007274101227906062 0.0006648306498854561 -0.00010968891394516054 -0.00010025231937057216 0.0007274101227906062 0.0006648306498854561
87.0 -1.2639987328323374 0.928871737401429 0.12240348434020765 -0.11444610365664963 -0.0013604293825771432 -0.00019345849631817222 7.705331256813869e-05 -0.0008623479653513663 -0.0013604293825771432 -0.00019345849631817222 7.705331256813869e-05 -0.0008623479653513663
88.0 -61.19947630721107 -126.67353951034414 -120.94589003372586 -251.0314921233533 -0.0023591909986026907 0.0020014530915212427 -0.01627371605430714 0.02719969068387945 -0.0023591909986026907 0.0020014530915212427 -0.01627371605430714 0.02719969068387945
89.0 -0.6021678764174621 0.10034305002510527 0.05705086711369529 -0.14307539989364976 0.0012299287118400408 -0.002916855787027641 -0.0016683771573475531 0.0068792167614276836 0.0012299287118400408 -0.002916855787027641 -0.0016683771573475531 0.0068792167614276836
90.0 -3.842962183546715 3.557793707200094 13.3533875193284 -15.815658416377552 0.0 0.0 0.0 0.0 0.0 0.0 0.0 0.0
91.0 0.21684254911056328 -5.821507209489904 1.0330191484315538 -26.756009309965993 -0.059685279007546416 0.03675359151249469 0.050929213831994134 -0.03234217690256618 -0.059685279007546416 0.03675359151249469 0.050929213831994134 -0.03234217690256618
92.0 0.0 0.0 0.0 0.0 0.05678071205763888 0.13871708333034938 -0.024293672124566987 -0.0559283515387477 0.05678071205763888 0.13871708333034938 -0.024293672124566987 -0.0559283515387477
93.0 0.0 0.0 0.0 0.0 0.11932274318822293 -0.1556589072544666 -0.13887530195066547 0.19569746187248932 0.11932274318822293 -0.1556589072544666 -0.13887530195066547 0.19569746187248932
94.0 0.0 0.0 0.0 0.0 -0.05340962110389847 0.0016839550146143527 -0.05174011669660667 0.0025943804089652894 -0.05340962110389847 0.0016839550146143527 -0.05174011669660667 0.0025943804089652894
95.0 0.0 0.0 0.0 0.0 0.002802950941900525 0.004388626864209325 0.010497857023808354 -0.0254290935380962 0.002802950941900525 0.004388626864209325 0.010497857023808354 -0.0254290935380962
96.0 -4.336979032513009 -3.1930939064432153 -4.512800290209789 -16.450714326934627 0.004596190248175406 0.0023709033994525207 0.0019286559762588533 0.00113716935057975 0.004596190248175406 0.0023709033994525207 0.0019286559762588533 0.00113716935057975
97.0 -4.274811509472983 3.859568163562947 10.82481688194534 -10.13946417650393 -0.0010373695075827237 -0.009262253152528337 0.014301790999313047 0.12518385007048663 -0.0010373695075827237 -0.009262253152528337 0.014301790999313047 0.12518385007048663
98.0 0.0 0.0 0.0 0.0 1.913699245550358 6.326772465960284 7.145457270615976 1.4086449016897788 1.913699245550358 6.326772465960284 7.145457270615976 1.4086449016897788
99.0 -18.107718758628554 16.086426528079024 17.658657371295682 -18.40234934508227 0.0004087739120846448 0.0006274228264411873 0.0006884044252239536 0.0010566247929226856 0.0004087739120846448 0.0006274228264411873 0.0006884044252239536 0.0010566247929226856
100.0 -12.474604020622417 -12.492015020718918 -10.035786745778186 -4.883652123993437 0.16264860493443348 -0.12962280900848508 -0.0027529880679366655 -0.1816909125316523 0.16264860493443348 -0.12962280900848508 -0.0027529880679366655 -0.1816909125316523
101.0 0.0 0.0 0.0 0.0 0.02252681269249148 -0.07927835738511102 0.01331370567982486 -0.025909708767336736 0.02252681269249148 -0.07927835738511102 0.01331370567982486 -0.025909708767336736
102.0 -4.729477879107981 3.4121794689693026 -2.310991354173972 1.3585723312072304 0.00013130592114747095 0.000353337587864083 0.0006716512618712961 0.0018073795506063687 0.00013130592114747095 0.000353337587864083 0.0006716512618712961 0.0018073795506063687
103.0 -2.7573957259527413 2.697556690509443 4.285170081086891 -5.342694465719108 -0.012011395264925827 0.04664850133221186 0.021935008060840856 -0.00997814681175855 -0.012011395264925827 0.04664850133221186 0.021935008060840856 -0.00997814681175855
104.0 -0.11090577824800987 -2.9154414366073906 -1.057674747432549 -49.823051879840136 0.07683797381293164 -0.04324625556475624 -0.05094874336906175 0.029075968834424464 0.07683797381293164 -0.04324625556475624 -0.05094874336906175 0.029075968834424464
105.0 -1.9351647540364607 1.8778763525279443 1.24614187813568 -23.558081152488786 0.000326569594427344 -0.002740464253853388 -0.0010320375872241074 -7.414907819735676e-05 0.000326569594427344 -0.002740464253853388 -0.0010320375872241074 -7.414907819735676e-05
106.0 -16.671244057325392 16.446797597953058 9.396487152535977 -9.531625492736357 -43.073167934426834 -3.9517043692953213 -3.4773149847280638 -0.32082641595134803 -43.073167934426834 -3.9517043692953213 -3.4773149847280638 -0.32082641595134803
107.0 0.0 0.0 0.0 0.0 -0.04881215857897731 0.03853161249893878 0.048616359538245925 -0.04736850670083084 -0.04881215857897731 0.03853161249893878 0.048616359538245925 -0.04736850670083084
108.0 -7.977142447519288 -0.8485518419211506 -4.2700407442477655 -2.177541697689485 0.0 0.0 0.0 0.0 0.0 0.0 0.0 0.0
109.0 14.423562531665798 107.85725467246723 -361.7120232304669 -685.2869988612994 0.21102497799325617 0.7853246923842053 0.10530075577575496 0.39187438578982736 0.21102497799325617 0.7853246923842053 0.10530075577575496 0.39187438578982736
110.0 0.0 0.0 0.0 0.0 9.089164367814385 0.8170541419508207 0.6162273082506864 5.33137793291486 9.089164367814385 0.8170541419508207 0.6162273082506864 5.33137793291486
111.0 -5.330367192952926 -8.38892558254186 -1.891341647544621 -3.0415975751407287 -0.09204554242455205 0.1085612106337398 0.035642059188059474 -0.04206258752655238 -0.09204554242455205 0.1085612106337398 0.035642059188059474 -0.04206258752655238
112.0 -53.53106210153813 145.7839245817 65.89243754949818 -224.1774444599365 -0.03410865422570881 0.02445589474625118 0.03329864214020871 -0.02352731886839761 -0.03410865422570881 0.02445589474625118 0.03329864214020871 -0.02352731886839761
113.0 0.0 0.0 0.0 0.0 0.025149429814438993 0.08487201470064971 -0.36879210217724206 0.8000462422644413 0.025149429814438993 0.08487201470064971 -0.36879210217724206 0.8000462422644413
114.0 0.0 0.0 0.0 0.0 0.02645543326378315 0.25885132535122385 0.22695642592869267 -0.46443298115268006 0.02645543326378315 0.25885132535122385 0.22695642592869267 -0.46443298115268006
115.0 -0.1392199024294642 0.07286399916990746 0.07107698916660633 -0.041916710972070455 14.638044571203274 13.447128058673131 16.716573980237868 15.366634549909968 14.638044571203274 13.447128058673131 16.716573980237868 15.366634549909968
116.0 0.0 0.0 0.0 0.0 -0.3947959759853862 0.2828516063923862 0.18466084003801758 -0.15963336030126035 -0.3947959759853862 0.2828516063923862 0.18466084003801758 -0.15963336030126035
117.0 -0.9572925217758254 -0.6133347227314773 -0.5372469882242112 -4.706753449167594 0.00014654033143055766 0.0003488467946989979 -0.00011653247315460351 -0.0002774115449410906 0.00014654033143055766 0.0003488467946989979 -0.00011653247315460351 -0.0002774115449410906
118.0 0.0 0.0 0.0 0.0 0.0067502739244237955 0.03138172019635915 -0.036260185033273544 -0.3464718690412243 0.0067502739244237955 0.03138172019635915 -0.036260185033273544 -0.3464718690412243
119.0 -2.5242592023983264 4.223509228471301 4.083114805070048 -7.1380499773529165 -0.00278721877582854 4.687289188191543e-05 -0.0006614253764956983 6.696557559494476e-05 -0.00278721877582854 4.687289188191543e-05 -0.0006614253764956983 6.696557559494476e-05
120.0 0.0 0.0 0.0 0.0 0.3349916794776469 -0.02296471803901068 0.11903375071366491 -0.1251379553293302 0.3349916794776469 -0.02296471803901068 0.11903375071366491 -0.1251379553293302
121.0 -555.0061243021594 111.72565602094262 -155.51840287648153 12.556792545162304 0.00022948305116048858 0.00011377587971184494 4.064722511228624e-05 2.01525723647517e-05 0.00022948305116048858 0.00011377587971184494 4.064722511228624e-05 2.01525723647517e-05
122.0 -107.14227388887718 157.04354750096556 148.80236969674445 -365.8594919439603 -0.30886485866548474 -1.5863735413763584 -1.6993820995065847 -1.065742627921979 -0.30886485866548474 -1.5863735413763584 -1.6993820995065847 -1.065742627921979
123.0 0.0 0.0 0.0 0.0 -0.10640783963790826 0.040176708777952694 0.08944325159659011 -0.025996003730498672 -0.10640783963790826 0.040176708777952694 0.08944325159659011 -0.025996003730498672
124.0 -4.219658509938615 7.4936074952421015 10.202962288940238 -25.611074213602222 0.0 0.0 0.0 0.0 0.0 0.0 0.0 0.0
125.0 0.0 0.0 0.0 0.0 -0.015800744892882797 -0.11010384925262655 -0.005904075035248653 0.00785538749517304 -0.015800744892882797 -0.11010384925262655 -0.005904075035248653 0.00785538749517304
126.0 -0.2584393236074517 0.05170649449910018 0.07838581467324524 -0.14138992092952507 -0.003035583013437435 0.028978223923274416 -0.0018145963263987317 0.021949305299967532 -0.003035583013437435 0.028978223923274416 -0.0018145963263987317 0.021949305299967532
127.0 -0.3505410934138018 0.32191443184480156 0.19458331480810898 -0.1755283568698432 0.010756901048875172 0.026217780733721507 0.06006307691374107 0.1635909453593583 0.010756901048875172 0.026217780733721507 0.06006307691374107 0.1635909453593583
128.0 -0.26519198424139145 -0.2518881361632739 0.21840505504715046 -0.03416501130851276 0.2179933864602051 -0.12093571630703574 -0.23476607660139265 0.20137731492363967 0.2179933864602051 -0.12093571630703574 -0.23476607660139265 0.20137731492363967
129.0 0.0 0.0 0.0 0.0 -0.07264315663272365 0.02729451799177024 0.021724912465490034 -0.013428209798755052 -0.07264315663272365 0.02729451799177024 0.021724912465490034 -0.013428209798755052
130.0 -2.712582986455575 2.3806928377615515 2.9014712707880683 -3.686985856278762 6.269521201095818e-05 0.00037315403755487723 0.00049753590324399 0.002961271286419089 6.269521201095818e-05 0.00037315403755487723 0.00049753590324399 0.002961271286419089
131.0 -1.1760251961700254 -7.540738981017784 -1.1811658481664304 -8.001489931991117 -0.007157719525116466 -0.013032321694336439 0.005655355609970746 0.010489693915554798 -0.007157719525116466 -0.013032321694336439 0.005655355609970746 0.010489693915554798
132.0 -6.015687818454489 1.500312959392963 0.23124331985449986 -2.047490783320848 0.00033358263371227175 -0.002613590735865584 0.0009717361474553903 -0.00814638909475016 0.00033358263371227175 -0.002613590735865584 0.0009717361474553903 -0.00814638909475016
133.0 -1122.0514009486228 1110.8586034867858 1001.2284951792489 -1136.233444505718 0.0 0.0 0.0 0.0 0.0 0.0 0.0 0.0
134.0 -0.08950671649824674 0.0754471181027519 0.06628147300702741 -0.055870065595396014 0.017664891961775075 0.05718389729328768 0.13421916943515969 0.4158901328640725 0.017664891961775075 0.05718389729328768 0.13421916943515969 0.4158901328640725
135.0 0.0 0.0 0.0 0.0 0.020755842248955634 -0.046129210349324 -0.0616939722627113 0.1788527014181915 0.020755842248955634 -0.046129210349324 -0.0616939722627113 0.1788527014181915
136.0 0.0 0.0 0.0 0.0 -0.0009235755423550101 -0.06926161510812535 -0.009803720589859698 -0.035190896378053775 -0.0009235755423550101 -0.06926161510812535 -0.009803720589859698 -0.035190896378053775
137.0 -1.2529669309659417 -0.2602069720278545 -0.1132897703302585 -0.04628666232626594 -0.029063306251685312 0.02217342839329212 0.03965847265605786 -0.03329474462483807 -0.029063306251685312 0.02217342839329212 0.03965847265605786 -0.03329474462483807
138.0 -15.381324975109706 16.306343290821264 17.320310504323587 -18.52590047056401 0.0016331202284779185 0.0012086043371397602 0.0008565692212561772 0.0006339112441436765 0.0016331202284779185 0.0012086043371397602 0.0008565692212561772 0.0006339112441436765
139.0 -0.30076087698908066 -0.5924413761497496 0.028684387554734285 -22.666198587045336 -0.00020042615979950926 -1.6352634858001976e-05 5.431303298098301e-05 4.431363636648435e-06 -0.00020042615979950926 -1.6352634858001976e-05 5.431303298098301e-05 4.431363636648435e-06
140.0 0.0 0.0 0.0 0.0 0.012808209732911477 0.009990094661721953 0.005371757598848171 0.013995102918700758 0.012808209732911477 0.009990094661721953 0.005371757598848171 0.013995102918700758
141.0 -4.5541117052719216 -14.138479372248833 -6.846179649072027 -7.128980214395657 -0.004341776849835486 -0.02602380268020241 -0.003619444448012763 -0.02169427664865072 -0.004341776849835486 -0.02602380268020241 -0.003619444448012763 -0.02169427664865072
142.0 -10.097906281187916 -0.5631813550676107 -6.967092639736678 -3.0564189047392953 -0.10264891366449713 0.21148235772653087 0.3135525758345331 -0.4306013200022103 -0.10264891366449713 0.21148235772653087 0.3135525758345331 -0.4306013200022103
143.0 -1.1629290740517684 -0.11413796328146802 -0.22849481460976376 -0.024007288473829155 0.00019044985149424716 0.008092870474132059 -0.0005837574485711268 -0.014019993957532915 0.00019044985149424716 0.008092870474132059 -0.0005837574485711268 -0.014019993957532915
144.0 -0.007893652565631432 -9.64937204345153e-05 0.07641394289827028 0.0009341006057738603 -0.024458533237651334 0.04185386317409277 0.02991130907008067 -0.02084377650545344 -0.024458533237651334 0.04185386317409277 0.02991130907008067 -0.02084377650545344
145.0 -1.0522116823385907 0.27128011451709155 5.340091242923662 -7.368751943045672 0.1736029004703246 0.13941107170276343 0.18461476419610479 0.14825410208587747 0.1736029004703246 0.13941107170276343 0.18461476419610479 0.14825410208587747
146.0 0.0 0.0 0.0 0.0 0.1769661564850308 -0.12398939146324199 -0.044582124880710866 -0.24164812340813596 0.1769661564850308 -0.12398939146324199 -0.044582124880710866 -0.24164812340813596
147.0 -5.787318532682485 -8.344585576706189 1.4205539165957157 -34.82897525564432 0.005292760561175674 0.007070421055260376 0.010264294043743892 0.013711725645898096 0.005292760561175674 0.007070421055260376 0.010264294043743892 0.013711725645898096
148.0 -24.63666567636552 -3.1465912519648813 -9.879818974219184 -1.3153893276967261 0.1455022508839779 -0.1891981077725989 -0.10559830483371847 0.13731058686139974 0.1455022508839779 -0.1891981077725989 -0.10559830483371847 0.13731058686139974
149.0 -421.53942745677693 97.69423923393892 -81.69354563819182 -248.09918280405807 0.10604059713963014 0.12402145080227192 0.27964763210067933 0.32706629330725034 0.10604059713963014 0.12402145080227192 0.27964763210067933 0.32706629330725034
150.0 -4.293116203236965 17.017521014438614 12.212215098077532 -71.41494878103254 -0.8601983014224734 -0.5555252805807632 -0.30030946683253246 -0.19394307167001273 -0.8601983014224734 -0.5555252805807632 -0.30030946683253246 -0.19394307167001273
151.0 -776.3282481183657 427.0662119180893 232.03129859528053 -964.0707030638199 0.0 0.0 0.0 0.0 0.0 0.0 0.0 0.0
152.0 -34.40907442207741 23.478017928395058 8.031362112177076 -5.66414090494512 0.010463341025538251 0.07876134309294144 0.04258903417940381 0.32809412260261683 0.010463341025538251 0.07876134309294144 0.04258903417940381 0.32809412260261683
153.0 0.0 0.0 0.0 0.0 0.08002925381732437 -0.07835750285761169 -0.09701117853742491 0.07766831676950335 0.08002925381732437 -0.07835750285761169 -0.09701117853742491 0.07766831676950335
154.0 0.5402846601446059 7.907552950856868 -0.2811689216036426 -5.985185272746422 0.6995160312319153 -0.32833639572551093 -0.3323701496968385 0.153882888304292 0.6995160312319153 -0.32833639572551093 -0.3323701496968385 0.153882888304292
155.0 -17.274214710100917 3.0834838965631053 11.232959475720964 -16.505421547636594 0.0 0.0 0.0 0.0 0.0 0.0 0.0 0.0
156.0 -8.965893476363808 -0.2541339521917696 0.6258620629639191 -11.972431685334962 0.0005812288431109461 0.0004740653815320881 0.00032330934941666165 -7.456424997703697e-05 0.0005812288431109461 0.0004740653815320881 0.00032330934941666165 -7.456424997703697e-05
157.0 -29.10974962244722 9.777613720814037 15.742016883313893 -12.350661487667923 0.03229939835472359 0.020283236090704513 0.030161733386830474 0.010346240358532174 0.03229939835472359 0.020283236090704513 0.030161733386830474 0.010346240358532174
158.0 -41.67597547122588 23.531313532023816 23.704977254628357 -17.08574396678949 -0.00041557923993764664 -0.00027898958692395843 -0.00025514067823478105 -0.0001712828399197713 -0.00041557923993764664 -0.00027898958692395843 -0.00025514067823478105 -0.0001712828399197713
159.0 -0.12910228492201697 -0.059445797018424784 3.6820699552451135 -49.82372234210887 -0.19820870619930428 0.05986388779225346 0.08943721225935705 -0.025048780667568486 -0.19820870619930428 0.05986388779225346 0.08943721225935705 -0.025048780667568486
160.0 -10.298798844266573 -14.118876083750393 -4.66189578076122 -6.940371832978197 0.0 0.0 0.0 0.0 0.0 0.0 0.0 0.0
161.0 -24.2772081289704 39.69810135256479 35.992915506956244 -67.53715371925855 0.0016427999555843071 0.001361980675723106 0.007610244096546894 0.010804673864336336 0.0016427999555843071 0.001361980675723106 0.007610244096546894 0.010804673864336336
162.0 -0.14557966625496296 -0.3513266377068859 1.0123018238084713 -5.765173548595616 0.0 0.0 0.0 0.0 0.0 0.0 0.0 0.0
163.0 1.906992509177568 -6.790695384895784 3.6649318798804678 -11.349546394955377 -0.0033904658597621196 -0.011259432075029052 0.019276158193648293 0.01607487762043936 -0.0033904658597621196 -0.011259432075029052 0.019276158193648293 0.01607487762043936
164.0 -15.620098317350156 14.419111901611359 2.909780779719617 -5.288014914947532 0.00012534299994594188 7.438348328481247e-05 0.0006108980142733365 0.00047000374995939865 0.00012534299994594188 7.438348328481247e-05 0.0006108980142733365 0.00047000374995939865
165.0 -2244.683397433284 86.77753698462479 525.6650172309046 -1531.3949315397404 0.0 0.0 0.0 0.0 0.0 0.0 0.0 0.0
166.0 0.0 0.0 0.0 0.0 -0.0017350168879483507 0.0023415216765876852 0.0023848460611730227 -0.0023441911861765423 -0.0017350168879483507 0.0023415216765876852 0.0023848460611730227 -0.0023441911861765423
167.0 0.2202428596293997 -1.6252866054245025 1.5981078038773255 -6.642215392403257 0.002678412109938503 0.0011303823691830035 0.0016398070112740798 0.001087509914318297 0.002678412109938503 0.0011303823691830035 0.0016398070112740798 0.001087509914318297
168.0 -32.7192287843113 17.43087352788088 8.11380399635887 -12.258261681061311 0.000378149212052624 0.0004333084088051182 0.0002455321308339074 0.00046472551376518017 0.000378149212052624 0.0004333084088051182 0.0002455321308339074 0.00046472551376518017
169.0 -3.29349737597437 -17.109760656787206 -3.4078874725616046 -20.300777126150965 0.0015734926652446926 0.0006952699065314273 0.0009343901174130501 0.00034555321679046445 0.0015734926652446926 0.0006952699065314273 0.0009343901174130501 0.00034555321679046445
170.0 -14.62213117343171 2.0897060461410586 4.596874355696953 -2.0700723020257596 0.04445483721746211 -0.0665530044287733 -0.04995019358573724 0.07204609454609051 0.04445483721746211 -0.0665530044287733 -0.04995019358573724 0.07204609454609051
171.0 -18.387604711835028 12.47823199617355 12.49481005295172 -8.642824366815145 -0.015859034309895128 -0.021938505850640184 -0.018911078017386364 -0.026160533335089765 -0.015859034309895128 -0.021938505850640184 -0.018911078017386364 -0.026160533335089765
172.0 -0.30289200645224806 -0.13043264992296666 -0.09070570241800169 -0.2802300695343286 0.0028594431860176376 -3.411976788345386e-05 -0.0045802107719983476 0.006953337961864881 0.0028594431860176376 -3.411976788345386e-05 -0.0045802107719983476 0.006953337961864881
173.0 -11.594874301214842 1.2499576915601514 -7.992428558112762 -4.486437661930166 -0.17100977190836156 0.20990769491289737 1.5384672865691669 -1.8272449103894388 -0.17100977190836156 0.20990769491289737 1.5384672865691669 -1.8272449103894388
174.0 -0.006946499298237363 0.010433467935901341 0.010070397291661539 -0.020580817780997043 0.04636340019839495 0.07981948579380055 0.10973710671590324 0.19098261209215553 0.04636340019839495 0.07981948579380055 0.10973710671590324 0.19098261209215553
175.0 0.0 0.0 0.0 0.0 0.2276587022354701 -0.09380077692696387 -0.04595582955937415 -0.09689428715289738 0.2276587022354701 -0.09380077692696387 -0.04595582955937415 -0.09689428715289738
176.0 -0.2723431390753318 3.472655011469368 0.11725404840364517 -12.88043530407163 0.0 0.0 0.0 0.0 0.0 0.0 0.0 0.0
177.0 -13.206482639556313 1.0437066761979525 2.6668685597741852 -44.3681469633699 0.0005134500128484776 0.0006197870078073063 0.0006317347644340862 0.0008204511374173183 0.0005134500128484776 0.0006197870078073063 0.0006317347644340862 0.0008204511374173183
178.0 -25.108712707067 52.40084576451962 18.676210499501817 -165.56974643789886 0.000580629772302654 0.00033828994650017134 0.00015618830840902903 9.099935452173364e-05 0.000580629772302654 0.00033828994650017134 0.00015618830840902903 9.099935452173364e-05
179.0 -3.380256258476073 4.949607212433221 3.8167958245388296 -5.733646045661009 -0.0009530237962395471 -0.0004763350001344566 3.260880264028427e-05 -6.819817778035032e-05 -0.0009530237962395471 -0.0004763350001344566 3.260880264028427e-05 -6.819817778035032e-05
180.0 -8.223267554863353 10.939352207600242 21.809692885368747 -32.16790056007278 8.226034209146793e-05 0.00026676288082695925 0.00019866447592195832 0.0006442510031868257 8.226034209146793e-05 0.00026676288082695925 0.00019866447592195832 0.0006442510031868257
181.0 -2.516618965185195 4.532504390226331 7.573437599649274 -48.17597752941653 0.0010763909713204073 0.0003809684846573754 0.0008151959725598432 0.00028852339218708836 0.0010763909713204073 0.0003809684846573754 0.0008151959725598432 0.00028852339218708836
182.0 -45.521922260814655 34.99857934325028 22.05427460944272 -19.96679966048221 -0.01019729654941601 -0.03345585094047401 0.021020406293995472 0.07685030627861138 -0.01019729654941601 -0.03345585094047401 0.021020406293995472 0.07685030627861138
183.0 -1.8315417609819837 -0.3680398191822194 0.3245355626694526 -0.044168990841984807 -0.008940819341545772 0.15382786282566557 0.010188176687365307 -0.17528879468855454 -0.008940819341545772 0.15382786282566557 0.010188176687365307 -0.17528879468855454
184.0 -6.188326111177783 -5.2258647814634624 1.7609521427331918 -6.466998844202047 -0.000203242308917958 0.0001535488654060656 0.00028383071064603724 4.6843841003450486e-05 -0.000203242308917958 0.0001535488654060656 0.00028383071064603724 4.6843841003450486e-05
185.0 0.0 0.0 0.0 0.0 -0.05034359230020478 0.0803759335501 -0.06064013623420244 0.03522118551044134 -0.05034359230020478 0.0803759335501 -0.06064013623420244 0.03522118551044134
186.0 -0.033570829213670925 0.06635393836932209 -0.05286437199878514 -0.001660958321138127 0.014503252260493201 0.001440234953505979 -0.005254217159557412 -0.005475613638337949 0.014503252260493201 0.001440234953505979 -0.005254217159557412 -0.005475613638337949
187.0 -8.67346071505223 -3.491693503526563 -4.613241942831897 -2.2937509164136354 0.0012065880984786586 -0.0018318801165789968 -0.00039077454823404874 0.0005932862472932436 0.0012065880984786586 -0.0018318801165789968 -0.00039077454823404874 0.0005932862472932436
188.0 -15.984068574435605 0.6635936517840784 -23.195186581089875 -11.561290602748869 0.0034779297222121623 -0.007383401170437527 0.1209527013102975 -0.25677411211575724 0.0034779297222121623 -0.007383401170437527 0.1209527013102975 -0.25677411211575724
189.0 -162.51732172696333 190.59968277942173 284.46089606888194 -338.6857015472601 -0.0002616546866711783 -0.00102508828817757 -0.00010143341612695172 -0.0003973871373160214 -0.0002616546866711783 -0.00102508828817757 -0.00010143341612695172 -0.0003973871373160214
190.0 0.0 0.0 0.0 0.0 -0.03236121508512891 0.12066446686930093 0.11279634444737305 -0.189622485938848 -0.03236121508512891 0.12066446686930093 0.11279634444737305 -0.189622485938848
191.0 -0.005110188732866248 0.0012375407354624788 0.00793818955356508 -0.029028098972867886 0.020840932980161125 0.03135379525129714 -0.0002326977628613989 -0.0005278757562782968 0.020840932980161125 0.03135379525129714 -0.0002326977628613989 -0.0005278757562782968
192.0 0.0 0.0 0.0 0.0 0.03916427136530612 -0.026381348910321022 -0.03880415388230189 0.02785151459354191 0.03916427136530612 -0.026381348910321022 -0.03880415388230189 0.02785151459354191
193.0 -5.890770451213777 -3.088306840249063 -3.963993346558839 -14.53911718149468 -0.0010150325613825695 -0.00010092452280931755 -0.0006689182334546112 -8.481983818724013e-05 -0.0010150325613825695 -0.00010092452280931755 -0.0006689182334546112 -8.481983818724013e-05
194.0 -35.84671462539184 12.895215702012392 7.963776717152408 -41.07564951580727 0.0 0.0 0.0 0.0 0.0 0.0 0.0 0.0
195.0 -9.67461727888981 -36.44553053941526 -0.8866913789601369 -24.132570349948548 0.016362834959892738 0.007755550307614738 0.007906939480964093 0.0037476798534111827 0.016362834959892738 0.007755550307614738 0.007906939480964093 0.0037476798534111827
196.0 0.0 0.0 0.0 0.0 -1.3080634412601526 0.9422524691036754 0.3047185769907159 -0.5193242952266849 -1.3080634412601526 0.9422524691036754 0.3047185769907159 -0.5193242952266849
197.0 -8.336069097176738 -15.91853312422587 -15.452294055181948 -58.60181053723209 0.057955516132117454 0.0024678699495481863 0.002356387915332611 9.998097934125195e-05 0.057955516132117454 0.0024678699495481863 0.002356387915332611 9.998097934125195e-05
198.0 0.0 0.0 0.0 0.0 -0.2176541567827997 0.13927377465361274 0.2107890992009482 -0.17737567096265686 -0.2176541567827997 0.13927377465361274 0.2107890992009482 -0.17737567096265686
199.0 1.0605303002828625 -6.360826368324177 29.46313773661719 -74.05231796458168 0.0 0.0 0.0 0.0 0.0 0.0 0.0 0.0
200.0 -877.2890305310442 738.6707914204464 251.51878832959508 -247.6483968506181 -0.012371907419770088 0.05703177025076847 0.011033858193345313 0.03131757648435024 -0.012371907419770088 0.05703177025076847 0.011033858193345313 0.03131757648435024
201.0 -0.3088795678422884 0.05385356191468467 0.06926874255792492 -0.529650845302335 -0.08234809696179216 0.05093640901762462 0.045064642303497826 -0.021150693987063606 -0.08234809696179216 0.05093640901762462 0.045064642303497826 -0.021150693987063606
202.0 -0.7772116438057423 0.019607901189223287 0.043797671031022764 -0.2902196709465319 0.04855013908895513 -0.06732454444017631 -0.01786355275811281 0.024194985639513757 0.04855013908895513 -0.06732454444017631 -0.01786355275811281 0.024194985639513757
203.0 -0.730091537097635 0.05171118007263269 0.4777345569363641 -0.1796065462127464 -0.00044988688276404343 -0.0018578977110184688 -0.028260223887219993 -0.0721123943677323 -0.00044988688276404343 -0.0018578977110184688 -0.028260223887219993 -0.0721123943677323
204.0 -22.244546951700304 8.19949671120324 -13.922068454105839 5.192919481938816 0.07251479107618683 -0.06293806287936801 0.12916712492985818 0.5550517984371636 0.07251479107618683 -0.06293806287936801 0.12916712492985818 0.5550517984371636
205.0 -1.9360641931112432 2.031980538511585 1.2666410323060733 -2.4081150994937315 -0.04136509093385796 -0.12638542527303287 -0.09208022817029395 -0.278811154309944 -0.04136509093385796 -0.12638542527303287 -0.09208022817029395 -0.278811154309944
206.0 0.0 0.0 0.0 0.0 0.018569792906757455 0.06894750235816659 0.019361332062626663 0.07341491958028573 0.018569792906757455 0.06894750235816659 0.019361332062626663 0.07341491958028573
207.0 0.0 0.0 0.0 0.0 0.011260550596060358 0.3271951922054789 -0.002522931928889664 0.27562318921592627 0.011260550596060358 0.3271951922054789 -0.002522931928889664 0.27562318921592627
208.0 -12.96092598638269 1.3769220505653128 -5.587837677201298 -31.24855425923855 0.0012130132283742075 0.009613852472178813 -0.002789026759645816 -0.02210469859766611 0.0012130132283742075 0.009613852472178813 -0.002789026759645816 -0.02210469859766611
209.0 -5.163874364817582 -9.35837961198266 -1.8655980652777808 -3.537855475955664 0.00041842573714685375 -0.00011076138345649883 0.013562994296961903 -0.003590257192082958 0.00041842573714685375 -0.00011076138345649883 0.013562994296961903 -0.003590257192082958
210.0 -37.21164596418202 20.164928115507415 20.604612077277007 -74.57791174109107 0.10661805841806318 -0.004704766167239822 0.019002385343700995 -0.0008385238015809888 0.10661805841806318 -0.004704766167239822 0.019002385343700995 -0.0008385238015809888
211.0 0.0 0.0 0.0 0.0 0.034081137407656996 -0.024917874545167428 -0.04393343992053564 0.0019523106127256546 0.034081137407656996 -0.024917874545167428 -0.04393343992053564 0.0019523106127256546
212.0 -2.1365417543700596 -10.870540095459985 -2.3716962044817174 -13.19797044666851 0.05933884554865714 -0.02051394767557145 -0.005813896861149756 0.0020469976463369545 0.05933884554865714 -0.02051394767557145 -0.005813896861149756 0.0020469976463369545
213.0 -0.0017204797283107299 0.02265001829249549 0.13395792057627992 -1.7497038687668431 0.1561779367583025 -0.0874627878370422 -0.054140238832586174 0.030319623377977233 0.1561779367583025 -0.0874627878370422 -0.054140238832586174 0.030319623377977233
214.0 -6.77887650517685 -2.345857058986333 -1.3876354564433842 -0.5476226748877201 0.17941572623066526 0.05005993517268177 -0.09622584385133326 0.15002080840654566 0.17941572623066526 0.05005993517268177 -0.09622584385133326 0.15002080840654566
215.0 -8.063107100582744 3.246027302431036 2.7983359572209476 -4.376522251001131 0.005696255687469959 -0.011821266611301678 0.005188580345019337 -0.009758994376234297 0.005696255687469959 -0.011821266611301678 0.005188580345019337 -0.009758994376234297
216.0 -335.11803712801174 333.7641992772215 455.9434945808801 -495.699149596245 0.0 0.0 0.0 0.0 0.0 0.0 0.0 0.0
217.0 -27.63347278459597 13.554549461840976 18.735215466925833 -10.523267179273901 0.015457743976161545 -0.008326331374079668 -0.0021595757970593724 0.0011632579593431505 0.015457743976161545 -0.008326331374079668 -0.0021595757970593724 0.0011632579593431505
218.0 -6.106981244772 13.233064115556367 10.157418795031932 -22.36702971470665 -0.02066562929259888 0.004503365952481872 -0.0028400745060763997 0.0005311941990073008 -0.02066562929259888 0.004503365952481872 -0.0028400745060763997 0.0005311941990073008
219.0 -980.1328770906863 -199.06400640033698 -52.66264815379037 -567.3476822649627 -0.002232660756025032 -0.021634477071044007 -0.022279872095526544 -0.21589190417563736 -0.002232660756025032 -0.021634477071044007 -0.022279872095526544 -0.21589190417563736
220.0 -1.2811651200649352 7.7206361221035555 4.5530004336632715 -43.71816077088834 -0.05386188587040451 0.03324903888574261 0.036326712101192524 -0.022424544624186513 -0.05386188587040451 0.03324903888574261 0.036326712101192524 -0.022424544624186513
221.0 -770.6233606492001 927.7339919778509 1067.9406765576894 -1399.756320154127 0.0 0.0 0.0 0.0 0.0 0.0 0.0 0.0
222.0 -1.378448903795913 3.087965159572472 5.9174859181375945 -16.6695757587321 -1.8266352442094424e-05 -2.2132022577722197e-05 6.919333716308341e-05 8.383657904203435e-05 -1.8266352442094424e-05 -2.2132022577722197e-05 6.919333716308341e-05 8.383657904203435e-05
223.0 -87.42778305433345 -199.66040720602456 -131.3493735953278 -300.0666519253223 -0.01774951031773374 0.07135012455139611 0.06642630292153683 -0.13517048625268724 -0.01774951031773374 0.07135012455139611 0.06642630292153683 -0.13517048625268724
224.0 -27.791064680473617 7.774805200948883 13.834829703357181 -87.17438387314179 0.11988507276980656 0.042393880720634 0.03006615081751982 0.0106320226700279 0.11988507276980656 0.042393880720634 0.03006615081751982 0.0106320226700279
225.0 -2.2814444567594707 6.707812302880693 5.280467973779574 -15.360081798397298 0.005414534353990887 0.007134611780770509 0.007753861243575497 0.011721091715675546 0.005414534353990887 0.007134611780770509 0.007753861243575497 0.011721091715675546
226.0 -0.41246519855588454 -1.3666068559866824 -0.9481750911765019 -3.050250525928828 0.0010882754657675065 6.821971252130867e-05 -0.0003890947677682395 0.0007681854862709893 0.0010882754657675065 6.821971252130867e-05 -0.0003890947677682395 0.0007681854862709893
227.0 0.0 0.0 0.0 0.0 -0.055922681541880924 0.011538429552421941 0.00021163795177108315 -0.04293887547858744 -0.055922681541880924 0.011538429552421941 0.00021163795177108315 -0.04293887547858744
228.0 -8.730495913748474 -16.243792392983167 -15.78474825863082 -29.517611599614952 1.2230908825972766 0.15557575357277395 -0.0773590610006391 -0.10289105446927291 1.2230908825972766 0.15557575357277395 -0.0773590610006391 -0.10289105446927291
229.0 -0.2229599353902285 0.6334802162116234 0.2943212801213899 -0.8716269202207142 0.3610475067009348 -0.13132743091278673 -0.0875528008151452 0.1651381979201339 0.3610475067009348 -0.13132743091278673 -0.0875528008151452 0.1651381979201339
230.0 -9.547619602632635 8.288586460115088 8.311054819756993 -7.807928237086413 0.0004408604266972909 0.00022393951317734164 0.0003263352242454074 0.00016576527813487286 0.0004408604266972909 0.00022393951317734164 0.0003263352242454074 0.00016576527813487286
231.0 -13.203518433808977 7.373733752580241 7.759508531224328 -8.185800771781905 0.0 0.0 0.0 0.0 0.0 0.0 0.0 0.0
232.0 -1.5931871332161347 -0.4791256934301399 -0.7958060546331226 -0.4744972335225211 -0.08355202988496252 0.06797248274283757 0.037539514123820936 -0.030730759087426684 -0.08355202988496252 0.06797248274283757 0.037539514123820936 -0.030730759087426684
233.0 0.15678159734860567 1.098725576314435 -2.1177012363069063 -8.445845540747731 3.488168436803484e-06 1.8037619452697104e-06 2.4403935991080872e-05 1.2619485513104381e-05 3.488168436803484e-06 1.8037619452697104e-06 2.4403935991080872e-05 1.2619485513104381e-05
234.0 -4.644135408082032 7.7291396834095725 4.545732212811506 -8.82661671884536 -0.00032486117478700206 3.6795156962897114e-06 -0.0012152616963301878 1.3764570326627714e-05 -0.00032486117478700206 3.6795156962897114e-06 -0.0012152616963301878 1.3764570326627714e-05
235.0 -16.948714127121825 -0.9288766986801944 -1.9691787394185365 -5.973276190081388 -0.00032765360918318487 0.0040622787615164704 0.0006389651233615817 -0.007921946767051552 -0.00032765360918318487 0.0040622787615164704 0.0006389651233615817 -0.007921946767051552
236.0 -0.349680896671458 1.2808203889904328 0.2463921660071038 -1.3996392692401254 0.6736266923305543 -0.2892757278680846 0.8827626829107492 -0.2791862304974537 0.6736266923305543 -0.2892757278680846 0.8827626829107492 -0.2791862304974537
237.0 -1.5371555550693077 1.9935691973217613 5.066369542795047 -6.762958335318177 0.02183649320339579 0.022034630232199193 0.008583643908455684 -0.02644224270068935 0.02183649320339579 0.022034630232199193 0.008583643908455684 -0.02644224270068935
238.0 -5.551520351557326 0.4471944530516728 3.788516124068904 -0.9490579900707634 0.0032185533130611723 0.00046064146822454873 0.00043556179233953236 6.233789035328148e-05 0.0032185533130611723 0.00046064146822454873 0.00043556179233953236 6.233789035328148e-05
239.0 0.0 0.0 0.0 0.0 0.3336893718507544 -0.03185831335693137 0.014620783201415272 0.0818105625270921 0.3336893718507544 -0.03185831335693137 0.014620783201415272 0.0818105625270921
240.0 0.0 0.0 0.0 0.0 -0.024339156269338625 0.021132945208963475 0.03581529479227604 -0.032478586608139265 -0.024339156269338625 0.021132945208963475 0.03581529479227604 -0.032478586608139265
241.0 -12.295055912617311 1.0127640288412996 4.928237255235917 -0.46100266279879293 0.0013545970358227882 -0.1214329269791071 0.0005945433596249456 -0.08669232480643321 0.0013545970358227882 -0.1214329269791071 0.0005945433596249456 -0.08669232480643321
242.0 -0.47198289428229157 0.3437825000540712 6.585729751608864 -19.045380718152032 0.0005378921523736194 0.0010662029860045376 0.00038503275920407124 0.0028109207526181936 0.0005378921523736194 0.0010662029860045376 0.00038503275920407124 0.0028109207526181936
243.0 -0.034992975210939914 -1.5104669018299386 0.25164251684616495 -0.8048299050276622 0.04636636942008945 0.02591677287844896 -0.0002759844614715815 -0.00069244778926347 0.04636636942008945 0.02591677287844896 -0.0002759844614715815 -0.00069244778926347
244.0 -8.722023369290778 -1.0832159093094735 3.2666185809749577 0.24204687584580922 -0.0664104035862244 0.053048446139047044 0.04687539356448258 -0.037486523936401846 -0.0664104035862244 0.053048446139047044 0.04687539356448258 -0.037486523936401846
245.0 -7.844529848953362 5.172373578653228 7.713062079051466 -7.184595935687411 -0.00015148213712145193 -5.7981287065204973e-05 -3.617769784782769e-05 -8.112285100896456e-06 -0.00015148213712145193 -5.7981287065204973e-05 -3.617769784782769e-05 -8.112285100896456e-06
246.0 -6.684978454548945 2.7466080517647873 6.798505909202281 -16.546542372705495 0.00035050775481251426 0.00015263571326282156 4.6180570330938125e-06 0.00016747137654981377 0.00035050775481251426 0.00015263571326282156 4.6180570330938125e-06 0.00016747137654981377
247.0 -6.113927809755653 4.155938291860111 6.775396414463989 -7.576921797618709 0.0 0.0 0.0 0.0 0.0 0.0 0.0 0.0
248.0 0.04447164200082025 -1.007260414499153 0.30513564682171584 -1.9430998305437968 -3.581159939086523e-05 9.329711520772957e-05 9.950941787855279e-05 -0.0002592439818936872 -3.581159939086523e-05 9.329711520772957e-05 9.950941787855279e-05 -0.0002592439818936872
249.0 0.0 0.0 0.0 0.0 -0.02488874764109652 -0.02929857897523589 -0.06622820421520614 0.09643871658061395 -0.02488874764109652 -0.02929857897523589 -0.06622820421520614 0.09643871658061395
250.0 -864.4003734528743 383.03532953400986 1368.4267460056246 -1037.0242569919442 0.14651739047580786 0.3655585932201462 0.7036400757236018 1.7555709624606513 0.14651739047580786 0.3655585932201462 0.7036400757236018 1.7555709624606513
251.0 -0.8470405052953225 -2.0314225401179726 -4.635589630789662 -17.819568733115485 -0.543548303393909 1.3858225100987256 2.1362106224968382 -5.6373236748668685 -0.543548303393909 1.3858225100987256 2.1362106224968382 -5.6373236748668685
252.0 0.0 0.0 0.0 0.0 -0.46525732214651166 0.5271296501090664 0.871116597284447 -0.2725049555748262 -0.46525732214651166 0.5271296501090664 0.871116597284447 -0.2725049555748262
253.0 -220.56344917824694 198.50249457695907 25.559225318859774 -23.00991830143491 -0.07116702250027777 0.03332565049055453 0.031209349656833484 0.010601713968972526 -0.07116702250027777 0.03332565049055453 0.031209349656833484 0.010601713968972526
254.0 0.0 0.0 0.0 0.0 -0.0001801844669816077 0.001391011749387044 0.0009042610075484567 0.0005098346154252871 -0.0001801844669816077 0.001391011749387044 0.0009042610075484567 0.0005098346154252871
255.0 -0.003368869247798772 -0.004790509476113279 -0.006037526501755166 -0.008585322193148762 0.6134148912905779 0.15728354026017066 0.18885496445400743 -0.8546139351063619 0.6134148912905779 0.15728354026017066 0.18885496445400743 -0.8546139351063619
256.0 -3.406229770628809 7.497281831963147 3.9120643792915413 -8.544376969144743 0.00024075487233469697 0.00034927784675465733 0.00030940232604464665 0.00044886891456768347 0.00024075487233469697 0.00034927784675465733 0.00030940232604464665 0.00044886891456768347
257.0 -1.5204065518878378 0.551678401093916 1.3148627699750897 -2.084938518099492 0.038499440164690694 0.0280048328480452 0.02243127670966237 0.009398717905751168 0.038499440164690694 0.0280048328480452 0.02243127670966237 0.009398717905751168
258.0 -14.60585827258084 -26.088352087757297 3.2737379782705496 -84.61539430804736 0.0 0.0 0.0 0.0 0.0 0.0 0.0 0.0
259.0 -0.0672373794078759 0.07091856488910091 0.06859488602265017 -0.20500726443540518 0.0018824368129040409 0.002695113580188367 0.01619370756085869 0.022685385483753723 0.0018824368129040409 0.002695113580188367 0.01619370756085869 0.022685385483753723
260.0 -2.934244762902186 -0.000145833486681117 -0.2104012203462829 -0.02052076665860491 0.040297240704089674 -0.07956747141187884 0.025423806379827593 -0.05039686526079618 0.040297240704089674 -0.07956747141187884 0.025423806379827593 -0.05039686526079618
261.0 -0.8058693967985298 0.8926344434339586 1.3668610624122006 -1.9960698154432932 -0.7577188404436992 0.041232363811475686 0.28916205597657507 -0.015136198397866089 -0.7577188404436992 0.041232363811475686 0.28916205597657507 -0.015136198397866089
262.0 -0.5172583029292798 -0.5134051431068799 0.2263510886487966 -1.3866073694097043 0.0 0.0 0.0 0.0 0.0 0.0 0.0 0.0
263.0 -15.993044688529732 11.93942277986877 3.4574364654462837 -2.746756127978843 0.0031571559667919248 0.0015776762201780955 0.0008256944862884628 0.00041261140401408945 0.0031571559667919248 0.0015776762201780955 0.0008256944862884628 0.00041261140401408945
264.0 0.0 0.0 0.0 0.0 -0.36972976313220296 0.2421064692312358 0.21738867865754094 -0.14504042952523102 -0.36972976313220296 0.2421064692312358 0.21738867865754094 -0.14504042952523102
265.0 -8.158543564749746 -0.9130915148258243 2.0796365335979305 -22.71378844748078 0.0009186859435864011 0.0030930217356937976 0.0030708424273258685 0.010338878526354987 0.0009186859435864011 0.0030930217356937976 0.0030708424273258685 0.010338878526354987
266.0 -0.07317924395112048 -0.004255591883448841 0.031241746713588203 -0.13498758865523408 0.006540588960297287 0.021699094032944205 -0.004318887932104173 -0.0143283664399875 0.006540588960297287 0.021699094032944205 -0.004318887932104173 -0.0143283664399875
267.0 -2.508925598152587 1.4716665843389278 1.910095909989585 -1.1225219967721032 0.001935199506138482 -0.009725684476175353 -0.001663501013890584 0.027543785063966403 0.001935199506138482 -0.009725684476175353 -0.001663501013890584 0.027543785063966403
268.0 -2.889931498497218 3.977030564882956 2.396998196385793 -3.2988385326449334 -0.03888973212135255 -0.00018557530129267343 -0.0003985100215112003 0.003459243381547133 -0.03888973212135255 -0.00018557530129267343 -0.0003985100215112003 0.003459243381547133
269.0 -7.698150963068414 -1.9818559922758405 -6.938036577905245 -27.2740326786164 0.001905842517158012 -0.005151882758352792 0.002995109099654212 -0.0071482023857623095 0.001905842517158012 -0.005151882758352792 0.002995109099654212 -0.0071482023857623095
270.0 -9.641674442968675 8.95672887467713 0.8056458776896092 -9.337797052692611 -0.49932689220352305 0.8087645035525423 2.256455733407823 2.598416896984125 -0.49932689220352305 0.8087645035525423 2.256455733407823 2.598416896984125
271.0 -5.562026484008807 -8.918668861229449 6.369840160933414 -19.51972188430826 -6.720248815925508e-05 -0.0010322921092030227 0.0008549788289069568 0.009066156313948765 -6.720248815925508e-05 -0.0010322921092030227 0.0008549788289069568 0.009066156313948765
272.0 -4.002258462544935 -9.76884881520949 -0.7544492601322419 -2.6471479262806468 0.0 0.0 0.0 0.0 0.0 0.0 0.0 0.0
273.0 -0.110288782570561 0.014219297789566277 0.001714409230297028 -0.10087762328327754 -0.016007866942513285 -0.0013890324718504935 -0.003329900308220536 0.005536481609732705 -0.016007866942513285 -0.0013890324718504935 -0.003329900308220536 0.005536481609732705
274.0 -11.198967361760328 3.068812962106895 118.92080656599597 -98.59873618940195 0.027614776911579677 0.046444308602884225 0.07303117995040598 0.12282853742074268 0.027614776911579677 0.046444308602884225 0.07303117995040598 0.12282853742074268
275.0 -40.18074447068429 4.062310822962134 6.97426126800989 -14.945970430302394 0.0026751990007287093 0.0026848620051414945 0.005978102859621312 0.005479740681574416 0.0026751990007287093 0.0026848620051414945 0.005978102859621312 0.005479740681574416
276.0 0.0 0.0 0.0 0.0 -0.006833742431088452 0.006961844046426689 -0.012367017615012976 0.001647645008353116 -0.006833742431088452 0.006961844046426689 -0.012367017615012976 0.001647645008353116
277.0 -0.9741071401984143 -7.103775493037072 -1.453336774930805 -27.026499124473055 0.0 0.0 0.0 0.0 0.0 0.0 0.0 0.0
278.0 0.0 0.0 0.0 0.0 -0.004232682406514865 0.0070690572602142 0.012085184845414822 -0.026631608072542105 -0.004232682406514865 0.0070690572602142 0.012085184845414822 -0.026631608072542105
279.0 -11.674928059323928 -7.830596167592299 -7.3527326502941746 -9.938368344094211 0.0 0.0 0.0 0.0 0.0 0.0 0.0 0.0
280.0 -20.519603189550608 10.507184962492154 1.9968838847847503 -2.6918781594328998 0.037795771824024764 0.03192566403260306 0.039852741172939805 0.004356044984804401 0.037795771824024764 0.03192566403260306 0.039852741172939805 0.004356044984804401
281.0 -4.692565260076021 2.7481687442149703 2.892002336101311 -8.280676060719022 0.016739454826666493 0.08801115433442971 -0.00014741555552254777 -0.07536837306395752 0.016739454826666493 0.08801115433442971 -0.00014741555552254777 -0.07536837306395752
282.0 -0.6745712792881925 -1.6144608681585386 -5.238875106592771 -3.174649068950707 0.22844974738283927 -0.10521045234343487 -0.1019848729879844 0.06389279285630152 0.22844974738283927 -0.10521045234343487 -0.1019848729879844 0.06389279285630152
283.0 -3.094194937582849 1.5751453066090433 4.503441391060045 -12.160076234132488 0.0 0.0 0.0 0.0 0.0 0.0 0.0 0.0
284.0 -4.435027258078127 2.4961088484546483 1.4393105048056605 -0.810727684042987 0.0 0.0 0.0 0.0 0.0 0.0 0.0 0.0
285.0 -918.8912721697983 267.8061227407851 218.39082766939 -389.5043011256484 -0.05597696382973178 0.0889661725184371 0.10122783048798949 -0.16088497865399015 -0.05597696382973178 0.0889661725184371 0.10122783048798949 -0.16088497865399015
286.0 -0.19592080285748822 -0.30501988509329286 0.08593751702812348 -0.29239022744343285 0.06680510917008681 -0.03974721466730834 -0.035132989170415546 -0.08705623447079877 0.06680510917008681 -0.03974721466730834 -0.035132989170415546 -0.08705623447079877
287.0 -16.284726679604745 -26.6238407828011 -9.402198479771219 -32.076939985410824 0.0 0.0 0.0 0.0 0.0 0.0 0.0 0.0
288.0 -0.04966421756809541 0.11472133269143386 0.1148486909776644 -0.6477033322945445 0.004543445440419508 0.0008941597474993975 -0.011769890218076827 0.003596161267195281 0.004543445440419508 0.0008941597474993975 -0.011769890218076827 0.003596161267195281
289.0 -6.33776909878145 4.172430593993113 1.5383730263001276 -1.9775861393791336 0.0007527471489288018 0.0007459931687291031 0.0006940735236003573 0.0006878459891059353 0.0007527471489288018 0.0007459931687291031 0.0006940735236003573 0.0006878459891059353
290.0 -0.0413842710794751 -0.06138785504799623 -0.07362134868499766 -0.031101304969916643 -0.012534418491283244 0.02093829812160085 0.04226715669969106 -0.02714996769098185 -0.012534418491283244 0.02093829812160085 0.04226715669969106 -0.02714996769098185
291.0 -1.0132111004252145 5.388966146273028 -2.827317188493528 -33.7945151250079 -0.0017177422288023878 0.0012436765225068089 0.0008341625060577199 -0.00060394878075666 -0.0017177422288023878 0.0012436765225068089 0.0008341625060577199 -0.00060394878075666
292.0 -5.692633942104045 7.781276038633122 14.94540313938588 -24.051507810708323 -0.0012225592045878348 0.00041632827184276037 0.0004955261726918641 0.0009809367703414124 -0.0012225592045878348 0.00041632827184276037 0.0004955261726918641 0.0009809367703414124
293.0 -62.705187666620525 22.081041787940574 15.36091320842577 -46.48809297639906 -6.538838981273101e-06 4.5696040540682767e-07 0.00014400103025018638 -1.0063372006954413e-05 -6.538838981273101e-06 4.5696040540682767e-07 0.00014400103025018638 -1.0063372006954413e-05
294.0 -0.8316496409574734 -0.3260576987863082 -0.25129478286957296 -0.14966096367987686 0.0 0.0 0.0 0.0 0.0 0.0 0.0 0.0
295.0 -44.75834797726584 25.308914479287917 14.358431037245666 -8.612317141298703 0.0003017502018655009 0.020212444892497548 0.0004640031244401952 -0.005702701079549734 0.0003017502018655009 0.020212444892497548 0.0004640031244401952 -0.005702701079549734
296.0 -7.143391774741815 38.142059287185475 7.716475622300332 -43.261480157560385 0.002008490367019931 0.003539625548902708 0.0053930114901063544 0.0099590927158303 0.002008490367019931 0.003539625548902708 0.0053930114901063544 0.0099590927158303
297.0 0.0 0.0 0.0 0.0 0.008293087087536613 -0.524278160410568 0.02829406988268827 0.30080399142844866 0.008293087087536613 -0.524278160410568 0.02829406988268827 0.30080399142844866
298.0 0.0 0.0 0.0 0.0 -0.8445298911972507 0.5463734010329369 1.1361567941725994 -0.7208144754802122 -0.8445298911972507 0.5463734010329369 1.1361567941725994 -0.7208144754802122
299.0 0.0 0.0 0.0 0.0 -0.16007266016312707 0.17454244931340238 0.10961760466745465 -0.13840950863688253 -0.16007266016312707 0.17454244931340238 0.10961760466745465 -0.13840950863688253
300.0 -0.4110333713540558 -0.38666355092499965 -0.3638679946246026 -1.5122304790274357 -0.0011608742239526456 -0.0013763850196765915 -0.006158476901066843 -0.002519429593614601 -0.0011608742239526456 -0.0013763850196765915 -0.006158476901066843 -0.002519429593614601
301.0 -1.0505321515632218 -2.2570633138730742 -1.4816732021541343 -3.2586316656644483 0.04432000303380012 -0.027181604316963023 -0.008052499534176505 0.003773371639953364 0.04432000303380012 -0.027181604316963023 -0.008052499534176505 0.003773371639953364
302.0 0.0 0.0 0.0 0.0 -0.13661456422648582 0.12206902707617637 -0.039279626770830064 -0.23373817486871487 -0.13661456422648582 0.12206902707617637 -0.039279626770830064 -0.23373817486871487
303.0 -14.152980138381814 10.619580486694856 11.127104881543348 -8.350636351258068 0.0012891319107790102 0.0015219542301410619 0.00021070219611990287 0.00028699328784628894 0.0012891319107790102 0.0015219542301410619 0.00021070219611990287 0.00028699328784628894
304.0 0.0 0.0 0.0 0.0 0.27539270098968816 3.153953439977653 0.4641243202051606 2.783802843580773 0.27539270098968816 3.153953439977653 0.4641243202051606 2.783802843580773
305.0 -0.1552226087724472 -0.10513492529152556 -0.19590601376636607 -0.15122468501991443 -0.0006612147235350877 0.002313249115441163 -0.01605735209835494 0.06122348927874628 -0.0006612147235350877 0.002313249115441163 -0.01605735209835494 0.06122348927874628
306.0 -5.046763903528083 4.37037881258648 2.2327758544301024 -2.0059260271462658 0.0058841309250663104 -0.035596212092638496 0.0061890774214500635 -0.03913238144031195 0.0058841309250663104 -0.035596212092638496 0.0061890774214500635 -0.03913238144031195
307.0 -4.16037893971147 5.651726343183546 -1.0133620888136106 0.6070586337745721 0.311950326309688 0.46207899628090665 0.1285579758916166 0.18979342167583219 0.311950326309688 0.46207899628090665 0.1285579758916166 0.18979342167583219
308.0 -5.144092159829539 8.706244919051704 9.153446552861498 -16.61268749516467 -0.008375710732727968 -0.004491689731432736 -0.002138112493123027 -0.0009332800961079276 -0.008375710732727968 -0.004491689731432736 -0.002138112493123027 -0.0009332800961079276
309.0 -10.368027980826277 -5.2257413071056575 9.055198899161997 -8.666367163929543 2.1930228800818252e-05 1.1340310216849287e-05 -1.1259863828961875e-05 -5.822572576859926e-06 2.1930228800818252e-05 1.1340310216849287e-05 -1.1259863828961875e-05 -5.822572576859926e-06
310.0 -323.92819618827826 409.0073960278702 383.10145659810536 -484.3638487903338 0.0019893122042551462 -0.001705006364751649 -0.0007475660874166625 0.0006807086676516345 0.0019893122042551462 -0.001705006364751649 -0.0007475660874166625 0.0006807086676516345
311.0 0.0 0.0 0.0 0.0 0.07854026241993274 -0.01036465466576638 0.02360348806967072 0.05865658945628611 0.07854026241993274 -0.01036465466576638 0.02360348806967072 0.05865658945628611
312.0 0.0 0.0 0.0 0.0 0.0036255637453365456 0.0006464552451082368 0.0019852707908284343 0.002105039569244828 0.0036255637453365456 0.0006464552451082368 0.0019852707908284343 0.002105039569244828
313.0 1.5976020216789946 1.5393064325640569 -7.870283350507114 -6.460271447311562 -0.0003314524734127138 0.00010136897620436288 0.00019349846797186692 -5.917814217363589e-05 -0.0003314524734127138 0.00010136897620436288 0.00019349846797186692 -5.917814217363589e-05
314.0 -0.00578325214915273 0.0017117173308749867 0.0005038801812425601 -0.00014913761611512634 -0.007542384231875335 -1.3869918174138613 0.975441715187093 -10.717871325142054 -0.007542384231875335 -1.3869918174138613 0.975441715187093 -10.717871325142054
315.0 -11.277955941293651 10.357258211042744 3.284516994106387 -3.1474231276670133 0.006263113100576476 -0.011803648376176512 -0.06015956371585225 0.040139106218084517 0.006263113100576476 -0.011803648376176512 -0.06015956371585225 0.040139106218084517
316.0 -2.036821527630301 -10.919243533461463 -0.16832411275971165 -4.918365170461457 -0.00017279022837835153 0.0314266008339237 0.014721329782607913 0.3508505761676206 -0.00017279022837835153 0.0314266008339237 0.014721329782607913 0.3508505761676206
317.0 -10.725502522916571 3.328626992655633 1.6130582511723452 -13.219104553588235 0.007863740044305385 0.0012706589641642094 0.0011032906032127888 0.0005772755726645624 0.007863740044305385 0.0012706589641642094 0.0011032906032127888 0.0005772755726645624
318.0 -23.490408833689848 15.5915218634237 17.3482606580773 -11.711789351634348 -0.014347394787048669 0.10902689744158259 0.03223086610159677 -0.17209941492913053 -0.014347394787048669 0.10902689744158259 0.03223086610159677 -0.17209941492913053
319.0 -7.721080182421875 -5.808823646886661 -7.493676696827317 -6.574004413589193 0.02477509110332705 -0.02194067557152742 0.09624250908795923 -0.085231802348655 0.02477509110332705 -0.02194067557152742 0.09624250908795923 -0.085231802348655
320.0 -2.279097576583594 3.325880603441395 4.4804497863060915 -6.812064368397342 -0.01583948107327271 0.0022262088920203707 0.001636770347356217 -0.0020776918894873627 -0.01583948107327271 0.0022262088920203707 0.001636770347356217 -0.0020776918894873627
321.0 -0.8880244516366649 0.9648667145771692 1.0339916245894343 -2.8631895032993775 -0.025667813463609513 -0.0010774254296657326 -0.01090989108626725 -0.0004579507369372497 -0.025667813463609513 -0.0010774254296657326 -0.01090989108626725 -0.0004579507369372497
322.0 -35.76978300690816 2.1039091143191726 6.752380422486425 -22.85382854287734 5.8471992193610336e-05 3.838629533118581e-05 -4.147633622669054e-06 -2.722881215303088e-06 5.8471992193610336e-05 3.838629533118581e-05 -4.147633622669054e-06 -2.722881215303088e-06
323.0 -0.002698545222595202 -0.0012610945952024623 -0.0008950282616289787 -0.0003317456141101081 -0.21160681102677087 0.1689527189169544 0.15939049420710408 -0.1472637459859722 -0.21160681102677087 0.1689527189169544 0.15939049420710408 -0.1472637459859722
324.0 -14.39345594682544 25.02705185507872 15.240457361759697 -34.32551665421913 0.01081111416476074 0.015064108935139046 0.010181900020349214 0.013067533266301638 0.01081111416476074 0.015064108935139046 0.010181900020349214 0.013067533266301638
325.0 0.0 0.0 0.0 0.0 0.10416363958805436 0.015548384904194391 0.04996165440831001 0.14156468747671191 0.10416363958805436 0.015548384904194391 0.04996165440831001 0.14156468747671191
326.0 -0.067802577909553 -7.0088305285827674 0.08310498126771902 -0.943293959088277 0.0006081003826757965 0.0007334988389812261 0.0007465160540876291 0.0009004576786231914 0.0006081003826757965 0.0007334988389812261 0.0007465160540876291 0.0009004576786231914
327.0 -2.3259620783747468 1.5650521501301706 2.680188472081057 -1.9765333481998764 0.0007308812454143208 0.00026630976057991584 0.00018027531980297618 6.568656338689201e-05 0.0007308812454143208 0.00026630976057991584 0.00018027531980297618 6.568656338689201e-05
328.0 -14.098356703053206 18.030437745930623 22.291516868386115 -29.311969372479272 0.0021327089287760245 0.0009957824368342404 0.000943893630545517 0.000546779664789342 0.0021327089287760245 0.0009957824368342404 0.000943893630545517 0.000546779664789342
329.0 -488.8568836156256 371.45289925303604 250.16930297889292 -664.9070503496558 5.592035287425084 0.4508138595816115 2.5797206072271477 0.20797323411182542 5.592035287425084 0.4508138595816115 2.5797206072271477 0.20797323411182542
330.0 -15.527050389151594 2.094844228692563 0.6138264413429333 -4.057107899606484 -0.07720643742336308 0.12478955823278912 0.19381500604877175 -0.35130596600522856 -0.07720643742336308 0.12478955823278912 0.19381500604877175 -0.35130596600522856
331.0 0.0 0.0 0.0 0.0 0.030795337559691608 -0.014333154164060745 -0.04174717698166692 0.0192692605723737 0.030795337559691608 -0.014333154164060745 -0.04174717698166692 0.0192692605723737
332.0 -4.714415867158186 -2.262151142126749 -0.5208578533348417 -0.657612310627248 0.12766870674771785 -0.07215900810288244 -0.10441694927085789 0.06158657004656483 0.12766870674771785 -0.07215900810288244 -0.10441694927085789 0.06158657004656483
333.0 -0.13376325194477323 -1.791378523705305 -0.02599381445162393 -2.5771822285460178 0.0012784744462677028 -3.286290767316092e-05 -0.00023549585151396452 6.053369661246497e-06 0.0012784744462677028 -3.286290767316092e-05 -0.00023549585151396452 6.053369661246497e-06
334.0 -13.364789528481795 -16.108691615795962 -8.17495341967122 -10.113262671559152 0.014248889737190778 -0.028234790662813564 -0.08094512797331369 0.18699494109588882 0.014248889737190778 -0.028234790662813564 -0.08094512797331369 0.18699494109588882
335.0 -1568.9987010096736 -401.7366483611523 -283.0309668588966 -1117.4908144416445 0.0 0.0 0.0 0.0 0.0 0.0 0.0 0.0
336.0 -3.381888125398366 5.254548872826335 1.3746710885835107 -2.579868063737224 -0.000711279048999436 0.0020529220128695266 -0.0046690173866809626 0.0001147603688225246 -0.000711279048999436 0.0020529220128695266 -0.0046690173866809626 0.0001147603688225246
337.0 -30.345055668080004 -16.23413073475276 -4.316699051141066 -2.503892350203648 -0.0069605018187230226 0.005181326556574 0.005395290607701912 -0.004016199296281311 -0.0069605018187230226 0.005181326556574 0.005395290607701912 -0.004016199296281311
338.0 0.0 0.0 0.0 0.0 -0.07668028459679742 0.0864790719371093 0.049950177545390016 -0.20134849257124854 -0.07668028459679742 0.0864790719371093 0.049950177545390016 -0.20134849257124854
339.0 -0.10925661533316042 -0.05481705149518108 0.0961083187049053 -0.15032495126417544 0.10090677636381858 -0.13473334843283116 -0.15082577883227058 0.20241347062014664 0.10090677636381858 -0.13473334843283116 -0.15082577883227058 0.20241347062014664
340.0 0.0 0.0 0.0 0.0 -0.00132470772430094 -0.05893841982358942 0.04581456110072982 0.09009801020466507 -0.00132470772430094 -0.05893841982358942 0.04581456110072982 0.09009801020466507
341.0 0.0 0.0 0.0 0.0 -0.18274291005210547 0.724435764489189 0.8928608708807055 -0.5233805970015792 -0.18274291005210547 0.724435764489189 0.8928608708807055 -0.5233805970015792
342.0 -1.1825136250341777 1.991929782034302 1.1414186502658956 -2.11054310895187 0.06696182588078782 0.10299548544574362 -0.003038170167063914 -0.004673077639498829 0.06696182588078782 0.10299548544574362 -0.003038170167063914 -0.004673077639498829
343.0 -30.166782441708012 2.7438919071031838 -1.0073652570765066 -0.10479157385784307 -0.017849090917765598 0.0038209276363069455 0.010994536982135004 -0.002353583742554955 -0.017849090917765598 0.0038209276363069455 0.010994536982135004 -0.002353583742554955
344.0 0.0 0.0 0.0 0.0 0.04356072518494795 0.04610295409880755 -0.04161299387258805 0.06443131684145707 0.04356072518494795 0.04610295409880755 -0.04161299387258805 0.06443131684145707
345.0 -61.480208533404856 21.616870688670062 25.98821036901666 -12.729722720633312 0.05986362675750854 0.19068597164370876 0.18234394671153906 -0.2968001970986984 0.05986362675750854 0.19068597164370876 0.18234394671153906 -0.2968001970986984
346.0 -3.11823921549697 4.030545556984313 25.662205078372196 -34.86199870962961 0.0007971952221236984 0.001189626479753874 0.0007828944403928171 0.0011682859245722762 0.0007971952221236984 0.001189626479753874 0.0007828944403928171 0.0011682859245722762
347.0 0.0 0.0 0.0 0.0 0.01326379287536918 -0.02942984051022765 -0.021002523472252843 0.049795277735656035 0.01326379287536918 -0.02942984051022765 -0.021002523472252843 0.049795277735656035
348.0 -17.09621007405308 28.994155980449754 20.86406179216641 -49.36731869617386 -0.01924397474369576 0.009258286294696503 0.006255888710690475 -0.0030097113243357453 -0.01924397474369576 0.009258286294696503 0.006255888710690475 -0.0030097113243357453
349.0 0.0 0.0 0.0 0.0 -0.0030251162393958074 0.001067294573791188 0.011392101521236944 -0.008933938733439268 -0.0030251162393958074 0.001067294573791188 0.011392101521236944 -0.008933938733439268
350.0 0.0 0.0 0.0 0.0 -0.005395705313282871 0.0023373209016916397 0.0039355324956469795 -0.0015834209959501577 -0.005395705313282871 0.0023373209016916397 0.0039355324956469795 -0.0015834209959501577
351.0 -0.10983309440841509 -2.1226640511680746 0.4485735340614944 -8.951346369864266 -0.022431745020381186 0.022934217998445267 0.03517747021466917 -0.035342660735040325 -0.022431745020381186 0.022934217998445267 0.03517747021466917 -0.035342660735040325
352.0 -19.61022474531802 14.296062934547079 18.786210490477742 -26.907646598993686 1.9445342343594998e-05 1.2765678507167725e-05 5.52996074610226e-05 3.630365554620915e-05 1.9445342343594998e-05 1.2765678507167725e-05 5.52996074610226e-05 3.630365554620915e-05
353.0 -0.16097081628870957 0.10767494374841573 0.12074153206241774 -0.09386058049090909 -0.10079075228027572 0.022207883320864652 -0.03714832824402101 -0.24487004537512963 -0.10079075228027572 0.022207883320864652 -0.03714832824402101 -0.24487004537512963
354.0 -2.463633724326727 -5.96500601705613 -8.89073103076437 -24.715248954521947 -0.032306605644053396 0.03668371162953829 0.2486687639836353 -0.28236000184465315 -0.032306605644053396 0.03668371162953829 0.2486687639836353 -0.28236000184465315
355.0 -0.0518027112431592 -0.7429492108748448 -0.0617523349852343 -1.1162403985306604 -0.0006561663135973046 -0.0007613784307189781 0.00011305456514265032 0.00013118214941883476 -0.0006561663135973046 -0.0007613784307189781 0.00011305456514265032 0.00013118214941883476
356.0 -817.0927925206105 -94.85876466582192 -109.37257887001797 -395.19587470350166 -0.7431047409260015 1.6977763963727253 1.5847704122454056 -3.6207356128926276 -0.7431047409260015 1.6977763963727253 1.5847704122454056 -3.6207356128926276
357.0 -3.4321395064104268 1.3509674693700156 6.904882806786968 -16.64697650632636 -0.002660927230467426 -0.005527534146604092 -0.003033914553057353 -0.005741856444100175 -0.002660927230467426 -0.005527534146604092 -0.003033914553057353 -0.005741856444100175
358.0 -5.389837505674956 1.5467965950663447 1.7196663296168269 -0.4933714532278293 0.0008010907473232482 0.00015704237753010498 0.0011799061534261228 0.0025895755730218403 0.0008010907473232482 0.00015704237753010498 0.0011799061534261228 0.0025895755730218403
359.0 -1307.9022118070686 -1132.4443245483417 -1213.7839878904556 -1902.3563283211238 -0.6238822012609714 0.5064695953054813 1.2059099324204516 -0.9814610263847592 -0.6238822012609714 0.5064695953054813 1.2059099324204516 -0.9814610263847592
360.0 -0.11207213874184506 -0.01706456550408901 -0.022380793321003227 -0.08048768063108347 -0.6847158625260611 0.2408394879699402 0.1804485473264404 0.03302270291877932 -0.6847158625260611 0.2408394879699402 0.1804485473264404 0.03302270291877932
361.0 0.0 0.0 0.0 0.0 -0.022830641852104823 -0.004846893237675643 0.04039970374465127 0.000915025717806427 -0.022830641852104823 -0.004846893237675643 0.04039970374465127 0.000915025717806427
362.0 -7.146719909956405 6.794512711262816 1.8003985582065216 -2.3785503759443927 0.001588042914371182 -0.002500591823959478 0.0006074304875587689 -0.0004158311177934681 0.001588042914371182 -0.002500591823959478 0.0006074304875587689 -0.0004158311177934681
363.0 -27.677787581856762 17.754072455652416 5.554311073347442 -6.374246863149314 -8.96984815619736e-06 -4.476498207364996e-06 -5.8864331673439247e-05 -2.937687133887883e-05 -8.96984815619736e-06 -4.476498207364996e-06 -5.8864331673439247e-05 -2.937687133887883e-05
364.0 -0.15135422262561093 -4.454453103868163 5.896469558675695 -17.7288684462317 0.2839311275075267 -0.17201770165626465 -0.1932593867066096 0.11736605248678958 0.2839311275075267 -0.17201770165626465 -0.1932593867066096 0.11736605248678958
365.0 -19.885793587136124 13.659180261859778 29.151686381631517 -20.183916623895147 0.005135245477831209 0.0035632348725796515 0.003721013203724454 0.0025819299322843614 0.005135245477831209 0.0035632348725796515 0.003721013203724454 0.0025819299322843614
366.0 102.79613795778275 -93.86332813307445 -21.68305565390355 -531.859311856125 -29.405254151435937 -13.311366750638507 -12.488325735403414 -5.652822407510468 -29.405254151435937 -13.311366750638507 -12.488325735403414 -5.652822407510468
367.0 -10.843999809418385 -2.3015371421815134 -2.6263084012760656 -8.924808156740315 0.0 0.0 0.0 0.0 0.0 0.0 0.0 0.0
368.0 -6.182888514548983 4.407193477537335 8.192128524178965 -11.75707004394126 0.0 0.0 0.0 0.0 0.0 0.0 0.0 0.0
369.0 -8.396315990015138 0.9314942881697128 11.395252216039168 -12.090726249950881 0.650448407744148 0.9889589420543482 1.0451797144792596 1.589118848446245 0.650448407744148 0.9889589420543482 1.0451797144792596 1.589118848446245
370.0 -0.3168977537213452 -1.6266496706288793 2.587655373521611 -7.835331375097734 -0.09734623684524503 -0.015397639542223583 -0.013407792928221699 -0.018925391123331484 -0.09734623684524503 -0.015397639542223583 -0.013407792928221699 -0.018925391123331484
371.0 -654.4229514754575 -424.1902228827293 -14.590929771734437 -485.50605846987935 11.701848133824882 1.8843784442125293 -1.3587587467702789 -1.671374669660886 11.701848133824882 1.8843784442125293 -1.3587587467702789 -1.671374669660886
372.0 -4.551110403344612 20.698905457925743 61.63552599226909 -297.2398384864479 0.930609444430759 0.24704379696294074 0.16360175520405676 0.036368955058215455 0.930609444430759 0.24704379696294074 0.16360175520405676 0.036368955058215455
373.0 -0.012054555041714722 0.050412280530548484 0.043328211258992666 -0.18119905158809593 -0.012423415866318451 -0.003029449567754585 -0.001156942340967741 -0.007388413853239939 -0.012423415866318451 -0.003029449567754585 -0.001156942340967741 -0.007388413853239939
374.0 -874.5577701429164 491.05773796673293 435.90001939462235 -245.81918042574802 0.1422194584978031 0.35221041898839106 0.0062720138193166075 0.015532815541106883 0.1422194584978031 0.35221041898839106 0.0062720138193166075 0.015532815541106883
375.0 -14.357799823513279 1.755934018140543 13.135621512429307 -13.278832132144366 0.004452523450238801 0.014396370557892536 0.007233366750623441 0.022805182633704162 0.004452523450238801 0.014396370557892536 0.007233366750623441 0.022805182633704162
376.0 -0.1888098453273781 -0.18512351543728892 -0.4099817585900643 -0.40197726068657097 -0.005417093556896916 0.004001278077115667 0.019258003204531027 -0.025325985155070847 -0.005417093556896916 0.004001278077115667 0.019258003204531027 -0.025325985155070847
377.0 -1.882559509950118 1.2753396305336029 -3.2305260744226483 -20.40232759678919 0.0015420761696650525 -0.0001401023685776674 -0.0009230638625791107 8.38631943348646e-05 0.0015420761696650525 -0.0001401023685776674 -0.0009230638625791107 8.38631943348646e-05
378.0 -34.6903956849111 -4.244773996582339 21.280497565237756 -1.8027476422593338 2.696712915426133 -2.0584965419108 3.352455357073304 -2.559026442701974 2.696712915426133 -2.0584965419108 3.352455357073304 -2.559026442701974
379.0 -1.2206227863387402 -2.4798606836444046 -1.1726736408953922 -2.9160904510186514 -0.0005505060991657366 0.0001777968342085591 0.00017768735861469203 -8.784111412944415e-05 -0.0005505060991657366 0.0001777968342085591 0.00017768735861469203 -8.784111412944415e-05
380.0 -0.13069195454172988 -0.026065327039893255 -0.013535165965140435 -0.22686861406389594 0.0 0.0 0.0 0.0 0.0 0.0 0.0 0.0
381.0 -2.9979701242592265 7.236560257033295 12.951181761101562 -91.36835332710517 0.0 0.0 0.0 0.0 0.0 0.0 0.0 0.0
382.0 -767.128944854694 683.1074694718504 682.1287518483041 -1014.4091593507097 -1.9667255603620923 -1.479501845058205 -1.4368090786052834 -0.975118726624788 -1.9667255603620923 -1.479501845058205 -1.4368090786052834 -0.975118726624788
383.0 -0.1270877779523726 0.14891015262095195 0.043928259689841195 -0.051471226896724134 -0.24175997283054088 -0.055823016146778995 0.18162692287474844 -0.12807104695244334 -0.24175997283054088 -0.055823016146778995 0.18162692287474844 -0.12807104695244334
384.0 -0.3778079854296528 -0.02986328500425693 -0.051643712654644965 -0.10714794864024192 -1.57491790260838e-05 0.0005897153721349862 -1.3831358507694821e-05 0.0005179041216046088 -1.57491790260838e-05 0.0005897153721349862 -1.3831358507694821e-05 0.0005179041216046088
385.0 -0.9372595199731133 2.540804501632244 -13.450457531819152 -14.378285422945568 0.07832875474612098 -0.16990566124203615 -0.17030607892419963 0.36941691524321735 0.07832875474612098 -0.16990566124203615 -0.17030607892419963 0.36941691524321735
386.0 -3.545785094775864 2.6568725301955083 -0.3101847605250556 0.11532876517358454 -0.005389615116799267 -0.0029533625337300165 -0.0032258810092832694 -0.0017711992085145364 -0.005389615116799267 -0.0029533625337300165 -0.0032258810092832694 -0.0017711992085145364
387.0 -7.0257212630954955 17.56812341409837 17.11045380982587 -42.81099766743577 0.07035131834747785 0.0025735837262649904 -0.005973772254283237 0.0006214731084381026 0.07035131834747785 0.0025735837262649904 -0.005973772254283237 0.0006214731084381026
388.0 0.0 0.0 0.0 0.0 -0.021453804510639506 0.05367631677846954 0.02885705197950956 -0.07482476077733184 -0.021453804510639506 0.05367631677846954 0.02885705197950956 -0.07482476077733184
389.0 -138.97290639315204 -87.66787928217198 -24.646301430760232 -17.28159311623586 -0.7419961388976324 0.8680035464047905 -0.038139335419889654 0.041235331432257175 -0.7419961388976324 0.8680035464047905 -0.038139335419889654 0.041235331432257175
390.0 -1.8307108916603678 0.07032367825218014 -0.7935755447931665 0.0067381929976050095 -0.02131637092544277 -0.03058477280778059 -0.01811389567779709 -0.026670591869387292 -0.02131637092544277 -0.03058477280778059 -0.01811389567779709 -0.026670591869387292
391.0 -0.0633878309369557 -0.05025648598839498 0.057439597768260506 -0.2087672757045721 0.006624255604990832 0.003542555211862273 0.01786316522349887 0.00955296003602059 0.006624255604990832 0.003542555211862273 0.01786316522349887 0.00955296003602059
392.0 0.0 0.0 0.0 0.0 0.9583921002724337 2.065587667375312 3.0417022191306025 4.659466717626359 0.9583921002724337 2.065587667375312 3.0417022191306025 4.659466717626359
393.0 -7.04142911920283 13.161999359441664 11.909419689922553 -23.318649767393833 -80.11807532270122 -5.897410950905869 -1.8082722348427849 -0.1310010977013946 -80.11807532270122 -5.897410950905869 -1.8082722348427849 -0.1310010977013946
394.0 -17.069372891973117 24.839563087278805 14.343839037499503 -21.58462840791452 0.0005098922559947017 3.1148086015870886e-05 5.8643568069626035e-05 3.58239389015014e-06 0.0005098922559947017 3.1148086015870886e-05 5.8643568069626035e-05 3.58239389015014e-06
395.0 -28.083080004739962 22.303981357279227 14.96250911123223 -33.503954670025834 0.0 0.0 0.0 0.0 0.0 0.0 0.0 0.0
396.0 -13.91331324392469 12.085299300881486 8.755850223290425 -17.37006294392012 0.0021496460787623355 0.0006263534550583373 0.0004286581438815017 0.00012490033225081275 0.0021496460787623355 0.0006263534550583373 0.0004286581438815017 0.00012490033225081275
397.0 -47.21356781901242 46.8619148025987 34.83535104891533 -54.255941743145414 -0.09244016058739976 0.05973722322842176 0.0668004126257402 -0.043168154787027214 -0.09244016058739976 0.05973722322842176 0.0668004126257402 -0.043168154787027214
398.0 -1.2920234007080584 -2.070943045821741 0.42878882480920355 -6.2458739282424585 -0.00880322233541582 -5.519281825603126e-05 -0.0007256524258594906 -4.5495616186341904e-06 -0.00880322233541582 -5.519281825603126e-05 -0.0007256524258594906 -4.5495616186341904e-06
399.0 -0.5244497008015391 -0.25931164080463864 0.05647093289898837 -0.424342176691796 0.0003069654355520645 -5.102254774229269e-06 5.794421810603008e-05 -9.63125255254771e-07 0.0003069654355520645 -5.102254774229269e-06 5.794421810603008e-05 -9.63125255254771e-07
400.0 -0.25690004575996706 -0.15945610764333704 -0.15254439006992745 -0.09485473492943924 0.07609814695704313 -0.13853909961451225 -0.04538482993497711 -0.04346659351877419 0.07609814695704313 -0.13853909961451225 -0.04538482993497711 -0.04346659351877419
401.0 0.0 0.0 0.0 0.0 -0.008665888147828312 -0.013837131781757668 0.0037711971866897275 0.08960617582830174 -0.008665888147828312 -0.013837131781757668 0.0037711971866897275 0.08960617582830174
402.0 -278.90435424102833 304.0223951168037 179.59130150753663 -195.74995825891355 14.173425857077484 2.4992872816577796 3.5432769823659873 -4.517981468392728 14.173425857077484 2.4992872816577796 3.5432769823659873 -4.517981468392728
403.0 -0.7772260538391195 7.098030965221836 3.0820022725714997 -19.718959689768027 0.0 0.0 0.0 0.0 0.0 0.0 0.0 0.0
404.0 -0.3613627802641346 0.7587732171833631 1.1115984305272788 -2.711005457170445 0.00022666791829729577 0.0002565108679055942 0.000618108687424461 0.0006994884722207629 0.00022666791829729577 0.0002565108679055942 0.000618108687424461 0.0006994884722207629
405.0 -27.290048047773553 14.29003841164435 14.766118409736945 -7.7512373808031665 -0.010492772747621162 0.01107605586717719 0.005404217640607365 -0.014468283309743573 -0.010492772747621162 0.01107605586717719 0.005404217640607365 -0.014468283309743573
406.0 -209.3117061652918 712.6423686911289 268.03364900239717 -911.9157251486976 -0.18920376617706164 -0.016541881416122728 -0.06946316173261834 0.013278111493035401 -0.18920376617706164 -0.016541881416122728 -0.06946316173261834 0.013278111493035401
407.0 -70.66780534611425 3.820498751003408 10.000041398825156 -0.5957183452969509 0.011445627669109964 0.03179056813318899 -0.03547919755593383 -0.017458424365273062 0.011445627669109964 0.03179056813318899 -0.03547919755593383 -0.017458424365273062
408.0 -71.42699764985855 72.88014093371591 123.38903912914677 -184.5590480264095 0.0 0.0 0.0 0.0 0.0 0.0 0.0 0.0
409.0 -10.122629609722354 7.972182040393421 3.8998698712631277 -4.561580107912048 0.00026710541375474575 0.0006055524082994579 0.0020592910683384143 0.002551363784998041 0.00026710541375474575 0.0006055524082994579 0.0020592910683384143 0.002551363784998041
410.0 -6.217865553697114 12.184769972503641 19.268950991973888 -38.61828173992692 -0.0035056739049309383 -0.003608395467033966 -0.008840331592138644 -0.009099366714993607 -0.0035056739049309383 -0.003608395467033966 -0.008840331592138644 -0.009099366714993607
411.0 -7.238879802892463 7.912062862270851 7.983022848789721 -9.327538691193176 0.00035530293384502675 0.0005120951217770001 -0.0001349182846423218 0.0007353775712525389 0.00035530293384502675 0.0005120951217770001 -0.0001349182846423218 0.0007353775712525389
412.0 -2.13568019436597 2.134277987010984 1.1018319223114323 -2.0041086692476258 0.016130000040996992 -0.0033015704645304542 -0.016036704311298958 0.00659967548893716 0.016130000040996992 -0.0033015704645304542 -0.016036704311298958 0.00659967548893716
413.0 -0.4245550570436218 0.38776271871601603 0.2136386368849103 -0.35871560908296846 -6.430152423626047e-05 -0.00014076386019803468 6.545677635428636e-05 0.00014329284764532722 -6.430152423626047e-05 -0.00014076386019803468 6.545677635428636e-05 0.00014329284764532722
414.0 -0.0036565965223348037 -0.023955611443290767 0.01420752518350442 -0.5145101550236416 -0.04271202380756724 0.020612917633688492 0.02006015308066584 -0.002812572987985219 -0.04271202380756724 0.020612917633688492 0.02006015308066584 -0.002812572987985219
415.0 -1.676759282964853 -5.335188192556272 2.546298430246246 -22.111210665332333 0.0 0.0 0.0 0.0 0.0 0.0 0.0 0.0
416.0 -3.652889399149218 2.1691291708020883 -0.7690915225581405 0.044899058929953745 0.0 0.0 0.0 0.0 0.0 0.0 0.0 0.0
417.0 -0.0029014272952993824 0.0016956671733239944 0.0005556306169581668 -0.00032472452409754594 -0.418237717160665 0.8469409806508761 0.6362117341527852 -0.41630289184153524 -0.418237717160665 0.8469409806508761 0.6362117341527852 -0.41630289184153524
418.0 -8.63714743413523 0.2581206129077005 -8.867698555349161 -33.33562699647497 0.0 0.0 0.0 0.0 0.0 0.0 0.0 0.0
419.0 -1.7160538031783659 1.184303256770227 1.9458523502173823 -1.6652841812643338 -0.011839658880128404 0.012689011597182468 0.0014346785255541304 -0.0010718119973840278 -0.011839658880128404 0.012689011597182468 0.0014346785255541304 -0.0010718119973840278
420.0 -90.58675045358017 149.9531627765606 164.6901476673636 -305.1298614236258 0.001603593154001688 0.0025202508727876806 0.0008832685088142636 0.0013881689533844677 0.001603593154001688 0.0025202508727876806 0.0008832685088142636 0.0013881689533844677
421.0 0.0 0.0 0.0 0.0 0.8125207218484679 0.3363506439125133 0.37056717980370085 0.02504916382184417 0.8125207218484679 0.3363506439125133 0.37056717980370085 0.02504916382184417
422.0 -20.735983038646953 99.46971414345028 58.44591862286094 -280.9049273157648 -0.2749398125422283 -0.4014647880018898 -1.084384016196234 -1.5800451478031 -0.2749398125422283 -0.4014647880018898 -1.084384016196234 -1.5800451478031
423.0 0.0 0.0 0.0 0.0 0.013580706795349267 0.0281235219917011 0.045681244021215255 -0.06320738782310212 0.013580706795349267 0.0281235219917011 0.045681244021215255 -0.06320738782310212
424.0 -0.2797367952909488 0.9746755796727752 3.2292940940697203 -18.030121732181247 0.06687615877208179 0.04847683678215867 0.05749474865896005 0.04174052412215437 0.06687615877208179 0.04847683678215867 0.05749474865896005 0.04174052412215437
425.0 -6.828061496719648 -16.06989031910505 -8.140246316318938 -18.182554857416605 0.0 0.0 0.0 0.0 0.0 0.0 0.0 0.0
426.0 -3.855252681084946 2.86146449835359 1.5839723931388727 -4.633615757356371 -0.007945463852749633 -0.0019934886667210007 -0.009548398014803939 -0.00239565915604358 -0.007945463852749633 -0.0019934886667210007 -0.009548398014803939 -0.00239565915604358
427.0 -0.39453590269476757 9.119753160952337 -0.5450574254833203 -6.885126688044378 0.0 0.0 0.0 0.0 0.0 0.0 0.0 0.0
428.0 0.05137647716509125 -1.0491895213090174 3.264890128358375 -7.106081429145871 1.7241791587642394 -0.5631075511977837 -0.1249048800646983 0.03239897048069435 1.7241791587642394 -0.5631075511977837 -0.1249048800646983 0.03239897048069435
429.0 0.0 0.0 0.0 0.0 -0.059637318022583805 0.025659118679319567 -0.022010038124421066 0.07726786822644417 -0.059637318022583805 0.025659118679319567 -0.022010038124421066 0.07726786822644417
430.0 -0.4729335272009515 0.4583607090762473 0.24223083430426606 -0.30770183338978024 0.001624363348223523 0.0003073433059203444 0.0003253427868739583 6.15576113463383e-05 0.001624363348223523 0.0003073433059203444 0.0003253427868739583 6.15576113463383e-05
431.0 -0.3867157596213011 0.12228552214481989 0.17839866141134159 -0.12946225689222554 0.0752963771083014 0.05468195359378062 0.045665545839491097 0.03316336528167981 0.0752963771083014 0.05468195359378062 0.045665545839491097 0.03316336528167981
432.0 -8.774485268997015 2.639280633605324 3.2745074532981087 -0.9916433460199819 -0.0015953150003829388 0.038582440158248285 0.007393934648233064 0.06607763744460524 -0.0015953150003829388 0.038582440158248285 0.007393934648233064 0.06607763744460524
433.0 0.005333251988535987 -0.01362159553204647 0.07510581037167015 -0.1918268578324401 -0.08568728803113368 0.09408390516864318 0.08175881711594138 -0.09059999902686296 -0.08568728803113368 0.09408390516864318 0.08175881711594138 -0.09059999902686296
434.0 -0.003397036715454339 -0.004063376003046688 -0.01714229307626062 -0.5464193655632085 -0.0021719995466879813 0.0008167642116646893 0.0007935367190850025 -0.00029958749422113817 -0.0021719995466879813 0.0008167642116646893 0.0007935367190850025 -0.00029958749422113817
435.0 -1.5376613750378552 7.325743854104549 3.2251919261689603 -19.2294714513115 0.0008294071503562853 0.00014955168405670269 0.00025974201361852887 4.6834483570877784e-05 0.0008294071503562853 0.00014955168405670269 0.00025974201361852887 4.6834483570877784e-05
436.0 -52.07766120783954 19.56335667581256 10.757881146717661 -5.416299779056108 0.023640362127286617 0.03297838961990087 0.03942479007373023 0.05468907577961095 0.023640362127286617 0.03297838961990087 0.03942479007373023 0.05468907577961095
437.0 0.22854526762997526 0.33697780973433245 -0.4630641109152171 -0.7063781475259635 0.14661204036195807 -0.37156111408063874 -0.19417491096584813 0.5790664057245583 0.14661204036195807 -0.37156111408063874 -0.19417491096584813 0.5790664057245583
438.0 -8.353625474494141 -14.631948039202092 -14.3365149799093 -26.525182000965746 -0.7856372436911755 0.04203066779035851 -0.20680296447447968 0.01181276386438448 -0.7856372436911755 0.04203066779035851 -0.20680296447447968 0.01181276386438448
439.0 -42.82243223894909 24.05574440074284 36.19784259849787 -43.704659564986805 -1.9721551153734674e-05 -5.6395101273135295e-05 0.00010243984106110021 0.00029293361186503926 -1.9721551153734674e-05 -5.6395101273135295e-05 0.00010243984106110021 0.00029293361186503926
440.0 -8.763184971022332 3.1414421564641386 4.890044407794493 -5.613538175209475 -0.00047051091087519986 -0.0015833001284080417 -0.00030954297719491385 -0.0011355440185783828 -0.00047051091087519986 -0.0015833001284080417 -0.00030954297719491385 -0.0011355440185783828
441.0 -622.6918916897082 283.9478285081186 -202.81735330019612 71.80876938666823 0.11676289510203261 -1.019617526305155 0.7446881262192379 -6.46075295901878 0.11676289510203261 -1.019617526305155 0.7446881262192379 -6.46075295901878
442.0 -8.594599771677695 4.338430013701983 5.248400163616001 -3.4119480724364903 0.0 0.0 0.0 0.0 0.0 0.0 0.0 0.0
443.0 0.0 0.0 0.0 0.0 -44.970383140875654 -1.9582968174162225 -5.221446694052899 2.011985249386492 -44.970383140875654 -1.9582968174162225 -5.221446694052899 2.011985249386492
444.0 -5.112886305056431 2.1944038750433026 4.1509410584956985 -3.6128922818845375 0.0003318329932655104 0.17500506223438628 0.02118036724124622 -0.2980462616962216 0.0003318329932655104 0.17500506223438628 0.02118036724124622 -0.2980462616962216
445.0 0.0 0.0 0.0 0.0 -0.2615665576209839 0.39130516323787423 0.3357105196589627 -0.4573818809790533 -0.2615665576209839 0.39130516323787423 0.3357105196589627 -0.4573818809790533
446.0 -289.02956602286986 -349.65015633548467 -170.86118438724475 -211.08329155995327 -0.1890427256584333 0.06946384357736489 0.04186972802347181 -0.015385052389184648 -0.1890427256584333 0.06946384357736489 0.04186972802347181 -0.015385052389184648
447.0 -79.34284999829926 42.44669574509227 31.38480384609752 -16.746745894444015 0.007147342224765736 -0.1939811418388937 -0.003932468479639726 0.1086284561979686 0.007147342224765736 -0.1939811418388937 -0.003932468479639726 0.1086284561979686
448.0 -6.721421663614281 7.270630123563312 19.34826972762782 -21.415606050163735 0.002477612504368566 0.020524153738501652 0.010138005864572799 0.02263835296802583 0.002477612504368566 0.020524153738501652 0.010138005864572799 0.02263835296802583
449.0 -4.670144422569638 0.4452449271346837 3.451817426859428 -0.6279937335304864 0.17574368130005197 0.26766228884842835 0.23231194248834056 0.6716534767386828 0.17574368130005197 0.26766228884842835 0.23231194248834056 0.6716534767386828
450.0 -2.872953673244788 8.101627695291313 5.275830200409964 -14.941269310478793 0.2496933279351694 -0.031376401266507266 -0.03162325603927659 0.007163160904306128 0.2496933279351694 -0.031376401266507266 -0.03162325603927659 0.007163160904306128
451.0 -0.02100802940006936 0.08226935398509581 0.035825350124984834 -0.22161909712526057 0.09051842042952564 -0.12048694216349043 -0.08890061569921627 0.006560609655452413 0.09051842042952564 -0.12048694216349043 -0.08890061569921627 0.006560609655452413
452.0 -3.9078683373583636 5.008754556479787 3.5130858173480686 -4.90673368046613 0.0007160881560921559 0.00020062879641569186 -0.0008515992814571583 -0.00046883130251391774 0.0007160881560921559 0.00020062879641569186 -0.0008515992814571583 -0.00046883130251391774
453.0 -221.58580400393242 239.47246313905393 -16.95203506769792 -637.2346117617917 -1.632734229776032 1.6928495072825473 1.9051555251336443 -1.975301021564003 -1.632734229776032 1.6928495072825473 1.9051555251336443 -1.975301021564003
454.0 0.0 0.0 0.0 0.0 -0.0021432720446774526 0.000778066918516066 0.0018928909007635555 0.004427712777161515 -0.0021432720446774526 0.000778066918516066 0.0018928909007635555 0.004427712777161515
455.0 -0.2778758838200484 0.2102424407252963 2.207184180994546 -2.641303122494026 3.768445321780817e-05 0.00014673875733805814 -0.0003896371400994328 0.00025634167180069335 3.768445321780817e-05 0.00014673875733805814 -0.0003896371400994328 0.00025634167180069335
456.0 -0.031319217708283706 0.012297542834072979 0.1431136143752018 -1.385440220476783 -0.0023959024248433915 -0.0002674788359663092 0.0011722131034111027 0.00017455415613403647 -0.0023959024248433915 -0.0002674788359663092 0.0011722131034111027 0.00017455415613403647
457.0 -2.3962084034606255 -3.873204196804579 -4.449430130791847 -7.192280648983778 -0.018939140392246173 0.05065682383345403 -0.04454808033677757 0.035898879749551 -0.018939140392246173 0.05065682383345403 -0.04454808033677757 0.035898879749551
458.0 -14.701944779964526 -1.3168917528949438 22.539284894638488 -22.33132677988396 0.1186251206503107 -0.03975782864316166 -0.04855932391892785 -0.3458798942967248 0.1186251206503107 -0.03975782864316166 -0.04855932391892785 -0.3458798942967248
459.0 0.0 0.0 0.0 0.0 7.170345141350882 6.428013429782396 5.053649856654218 -8.526981981041214 7.170345141350882 6.428013429782396 5.053649856654218 -8.526981981041214
460.0 0.0 0.0 0.0 0.0 0.2380060448490377 -0.0061657650961962525 -0.003003174143271739 -0.03991272396324384 0.2380060448490377 -0.0061657650961962525 -0.003003174143271739 -0.03991272396324384
461.0 -0.3139952901574379 1.6631894929305293 0.24018975366715228 -2.793374527768003 -0.28286419864615836 0.21057608479038542 0.1937156028419246 -0.14516166666023897 -0.28286419864615836 0.21057608479038542 0.1937156028419246 -0.14516166666023897
462.0 0.0 0.0 0.0 0.0 0.003448563646232264 0.0389302265421264 0.02676450855251909 -0.0779980410350327 0.003448563646232264 0.0389302265421264 0.02676450855251909 -0.0779980410350327
463.0 -18.31244231522139 22.99946929080537 22.432198684780026 -29.578919089132913 0.0 0.0 0.0 0.0 0.0 0.0 0.0 0.0
464.0 -1.8032788243785538 -0.4805071582984531 -0.1276841599258718 -0.03990859591862144 -0.060607548831106195 0.045980747369810365 0.054645699102223465 -0.047094007747921336 -0.060607548831106195 0.045980747369810365 0.054645699102223465 -0.047094007747921336
465.0 -27.762146178168702 -3.8977155292614967 -0.8067045233080541 -5.15359148063692 -0.6664862198348378 0.6933945773252143 0.5738978625693995 -0.594239644594233 -0.6664862198348378 0.6933945773252143 0.5738978625693995 -0.594239644594233
466.0 -707.2190553249312 -431.16821627328085 -99.48221792593748 -266.6352824890833 -1.0301392686299775 1.463667466522399 1.4615676327422853 -2.0604112036125137 -1.0301392686299775 1.463667466522399 1.4615676327422853 -2.0604112036125137
467.0 -9.823108676307974 2.0354632055320256 2.6737576730752517 -0.5783454849670113 -0.00889098413494401 -0.00644232890536722 0.3212004575305116 0.4839851340068842 -0.00889098413494401 -0.00644232890536722 0.3212004575305116 0.4839851340068842
468.0 -71.61914872075441 -316.4988546639734 -145.58313738003815 -606.6337633407096 -0.00422896594468505 -0.002466693217932125 -0.004627416874732062 -0.002699103745631209 -0.00422896594468505 -0.002466693217932125 -0.004627416874732062 -0.002699103745631209
469.0 -9.396420384795306 21.966082083822826 -0.9170790589531129 -107.9671098989676 -0.004326123162294469 -0.015311807218706211 -0.010786203366481813 -0.009629776176449624 -0.004326123162294469 -0.015311807218706211 -0.010786203366481813 -0.009629776176449624
470.0 -19.556988128433378 13.936537084244701 13.270691122141287 -31.179949425563088 0.00041297888604491326 -5.302341420220359e-05 -0.00881407525080376 -0.007317625109030652 0.00041297888604491326 -5.302341420220359e-05 -0.00881407525080376 -0.007317625109030652
471.0 -0.23648842179145896 -0.007012032058184031 -0.03825337107405825 -0.002588658566857333 0.060772743937347204 -0.06148301522046187 -0.04987896758020239 0.14760694564724247 0.060772743937347204 -0.06148301522046187 -0.04987896758020239 0.14760694564724247
472.0 -11.030816225770145 21.255089432372845 9.03330948499024 -32.42173144848462 0.00036051945531806885 0.0008342451077500148 0.0016598707545197515 0.003840955144109324 0.00036051945531806885 0.0008342451077500148 0.0016598707545197515 0.003840955144109324
473.0 0.0 0.0 0.0 0.0 0.027818958669802708 0.16772791010698562 0.012402908238379973 0.02837395871381827 0.027818958669802708 0.16772791010698562 0.012402908238379973 0.02837395871381827
474.0 -3.6835261842691374 -10.070046422907978 -6.674535704391301 -20.862893187901506 -0.14444824547094878 0.19626036280900747 0.24036539964540493 -0.32396913166194286 -0.14444824547094878 0.19626036280900747 0.24036539964540493 -0.32396913166194286
475.0 -4.285805315455354 -0.8950797133504573 1.075197479463937 -0.1963996825497328 -9.771515615938448 10.819443103728366 16.082613097042888 -17.807362153616214 -9.771515615938448 10.819443103728366 16.082613097042888 -17.807362153616214
476.0 87.556356414882 1119.3824008030713 -223.69952391831924 -1586.0238949356403 -2.5141086959194037 1.936578572833247 -3.47666070744835 2.6702586816558096 -2.5141086959194037 1.936578572833247 -3.47666070744835 2.6702586816558096
477.0 -19.53881881234917 44.54730602677537 39.77722564683828 -92.88362936135054 0.0 0.0 0.0 0.0 0.0 0.0 0.0 0.0
478.0 -0.11788613119387717 -0.10370848809154677 -0.10621003337616672 -0.09800184715703782 -0.7829258543381622 0.7403143334535336 0.4103116659354866 -0.4354534453567403 -0.7829258543381622 0.7403143334535336 0.4103116659354866 -0.4354534453567403
479.0 -9.193584130188253 4.246791694048742 7.78759773539811 -5.866906260307976 0.0 0.0 0.0 0.0 0.0 0.0 0.0 0.0
480.0 -10.462512436017295 4.922453569097911 4.605030076546287 -6.1747107926588445 -0.09765498769533767 -0.013607885278915863 -0.02281151349325114 -0.0031787056245712163 -0.09765498769533767 -0.013607885278915863 -0.02281151349325114 -0.0031787056245712163
481.0 -1.7980821131218878 -2.4095581943025826 -3.522905004202658 -13.493839461967697 -0.07203132548134525 0.12137635537676861 0.12949203319092087 -0.18836480220683985 -0.07203132548134525 0.12137635537676861 0.12949203319092087 -0.18836480220683985
482.0 -0.8345946751250499 0.2575641886975465 0.27055859682435124 -0.08364729899622622 -11.144024680731032 -15.999460114152233 -14.601132788384584 -20.870867446051722 -11.144024680731032 -15.999460114152233 -14.601132788384584 -20.870867446051722
483.0 -7.439699472445186 0.45007152103316006 0.4180246971596002 -7.60763663015343 8.116128734294773e-05 0.0003585859125978537 0.000999361860262224 0.0011628113932811764 8.116128734294773e-05 0.0003585859125978537 0.000999361860262224 0.0011628113932811764
484.0 -2.3089661564957003 -8.284712916405182 -1.972174359640114 -9.287927988389008 -0.11469839223662484 0.04440872529168204 0.024222151918001 -0.009378290920423357 -0.11469839223662484 0.04440872529168204 0.024222151918001 -0.009378290920423357
485.0 0.0 0.0 0.0 0.0 4.395852998473374 -2.0468606652884516 -3.401582015195505 -2.991400247153507 4.395852998473374 -2.0468606652884516 -3.401582015195505 -2.991400247153507
486.0 -3.9992750552900684 4.081506683613241 6.883019655602311 -7.715967229220554 -0.03126711097552627 0.07260629090089177 0.021458152420670753 0.04685782114081522 -0.03126711097552627 0.07260629090089177 0.021458152420670753 0.04685782114081522
487.0 -862.0264918960845 903.7503360737438 932.5578669199652 -1006.3865455391172 0.0 0.0 0.0 0.0 0.0 0.0 0.0 0.0
488.0 -0.503042826525848 0.34666414674941404 0.08209074317769387 -0.06636914183771465 0.00026330727888949375 0.0003281209317121076 0.0006531108083202738 0.0008138754380095746 0.00026330727888949375 0.0003281209317121076 0.0006531108083202738 0.0008138754380095746
489.0 -5.450513011315659 2.4065024526119587 4.248550064800471 -2.694682857846528 0.0 0.0 0.0 0.0 0.0 0.0 0.0 0.0
490.0 0.0 0.0 0.0 0.0 -0.02336398018560504 0.2481546917616729 0.16488033028138707 -0.3614498720871673 -0.02336398018560504 0.2481546917616729 0.16488033028138707 -0.3614498720871673
491.0 -327.4506505456944 217.91686115531712 -50.9041412243281 -794.0960167934074 7.705846675753848 1.4779453588908358 1.4462177971278862 0.28630046682537497 7.705846675753848 1.4779453588908358 1.4462177971278862 0.28630046682537497
492.0 -5.448301469540141 0.4070101460748932 -0.5266333988373929 -3.0436175349026118 -0.0001895354086951019 -0.00019765295614998597 -0.0002778840516507447 -0.00028978545303933215 -0.0001895354086951019 -0.00019765295614998597 -0.0002778840516507447 -0.00028978545303933215
493.0 -3.349569067256396 6.837260182707056 5.264794786354998 -11.50782791038225 0.00011594031527758542 0.00021990068318637724 -0.0004496437366232361 -0.0008528264274354691 0.00011594031527758542 0.00021990068318637724 -0.0004496437366232361 -0.0008528264274354691
494.0 -0.27587928661990735 4.554638774479547 -1.4597390537306028 -27.627979514024496 -0.00017331345455137842 -7.50961127099926e-05 -5.8110453328372966e-05 -2.517905585617763e-05 -0.00017331345455137842 -7.50961127099926e-05 -5.8110453328372966e-05 -2.517905585617763e-05
495.0 163.2450874269318 147.97459110243042 -351.01562652783053 -333.14979722767225 -8.284215890871139e-05 -7.586287916618465e-05 7.46373879082749e-05 6.834934307306774e-05 -8.284215890871139e-05 -7.586287916618465e-05 7.46373879082749e-05 6.834934307306774e-05
496.0 -7.025698917688361 2.835762160676164 6.281211773608779 -18.61467532033047 -0.5780272377697239 0.9171852643079852 1.0012477587371584 -1.5887308248283023 -0.5780272377697239 0.9171852643079852 1.0012477587371584 -1.5887308248283023
497.0 -58.00710924517725 19.64124271629807 1.7627897554928804 -11.696820513397634 -0.006346692491593561 0.0016800315523974514 -0.011993724128020952 0.0031748560360400383 -0.006346692491593561 0.0016800315523974514 -0.011993724128020952 0.0031748560360400383
498.0 -4.310719054726198 4.585428978368708 10.009717573114413 -10.968124123942433 -0.008113773721532533 0.030982072012282313 0.00014620663386787308 -0.0015149602208801502 -0.008113773721532533 0.030982072012282313 0.00014620663386787308 -0.0015149602208801502
499.0 -5.740778684287579 3.124749974803436 1.7086799002377224 -4.351623328712863 -0.000579934259395415 0.0020181630753400475 0.002429412434456402 -0.008454321141681197 -0.000579934259395415 0.0020181630753400475 0.002429412434456402 -0.008454321141681197
500.0 -21.365083547446098 22.07120309136887 21.148623157305327 -27.505627834609715 -0.0002015450592542771 0.00013469927722804917 0.00016236800036967226 -0.00010851594365885871 -0.0002015450592542771 0.00013469927722804917 0.00016236800036967226 -0.00010851594365885871
501.0 -16.98671004871431 25.585336030528012 8.109713461407058 -23.432032576445923 0.2886218153934091 0.4561839655047633 0.46183479454678705 0.8144130797684203 0.2886218153934091 0.4561839655047633 0.46183479454678705 0.8144130797684203
502.0 -2.413720341531413 -0.39374827714315386 -1.808758926116028 -0.3291858106568528 0.0002846964571071746 0.0028307507453826774 0.0008742942408186178 0.0086931502380776 0.0002846964571071746 0.0028307507453826774 0.0008742942408186178 0.0086931502380776
503.0 -0.33237299710272755 -0.17502618372599474 -0.06247148823063994 -0.4703331231091363 0.001108373704483491 0.0017515631362006014 0.001528743694140527 0.002415873895712363 0.001108373704483491 0.0017515631362006014 0.001528743694140527 0.002415873895712363
504.0 -0.1398939612055997 0.05781956256211539 1.1574899776478067 -2.524154516514165 -0.0008386592659083694 -0.0033018335628694877 -0.0032243834058642727 -0.012694520625740386 -0.0008386592659083694 -0.0033018335628694877 -0.0032243834058642727 -0.012694520625740386
505.0 2.937929118658051 -4.770300004253378 9.747392879975878 -14.441532520354277 0.029858385128877153 0.05356300051782085 0.03762174161305868 0.06748969700818394 0.029858385128877153 0.05356300051782085 0.03762174161305868 0.06748969700818394
506.0 -9.703356579553539 -29.268907157358704 -1.7052544551296465 -18.501608490757366 -0.22489647989345443 0.1753918120916233 0.16670406377325808 -0.13000882824880647 -0.22489647989345443 0.1753918120916233 0.16670406377325808 -0.13000882824880647
507.0 -3.2776679773871225 1.3730164239422464 2.5823908661654027 -1.362903240779111 0.0008340342777272004 0.00040010376802354555 0.0008961962447789003 0.0008442581782639851 0.0008340342777272004 0.00040010376802354555 0.0008961962447789003 0.0008442581782639851
508.0 -4.528329943984957 6.003156939034617 2.8872853717122267 -3.8263398517555807 -0.11876439928027979 -0.14503718828841092 -0.04030673844432783 -0.022503458292771925 -0.11876439928027979 -0.14503718828841092 -0.04030673844432783 -0.022503458292771925
509.0 -7.733699914862026 9.9935617228393 3.4231022305288614 -4.623154789984434 0.0 0.0 0.0 0.0 0.0 0.0 0.0 0.0
510.0 -1.9675309721875536 1.1162756191597354 1.2268659319634292 -0.6975048464442076 0.037040987436375766 0.3571810126261089 0.05649729934576079 0.5264920912211594 0.037040987436375766 0.3571810126261089 0.05649729934576079 0.5264920912211594
511.0 -1.9961560489519827 4.76987024352193 6.815523389358728 -16.292687809045884 -0.047265306943392205 -0.005197254135576171 0.052501630954191365 -0.010457170730456511 -0.047265306943392205 -0.005197254135576171 0.052501630954191365 -0.010457170730456511
512.0 -173.75383531996056 -444.42354324613086 -198.12263973736935 -505.54425433981066 0.012619353839096995 -0.008765497791022224 -0.005012502542279145 0.003481721847414743 0.012619353839096995 -0.008765497791022224 -0.005012502542279145 0.003481721847414743
513.0 -0.24020913071641062 -0.09420538938133122 -0.16675283973076196 -0.21998096803407943 0.00189121470588421 -0.0021332296542543924 -0.016696709152301707 0.0164278181313387 0.00189121470588421 -0.0021332296542543924 -0.016696709152301707 0.0164278181313387
514.0 -0.9366825756136199 0.20145621320839294 -0.7580323735491961 0.07648798500736095 -0.002609476267777807 0.007085966611509476 0.0063203857159854 -0.01716284708481871 -0.002609476267777807 0.007085966611509476 0.0063203857159854 -0.01716284708481871
515.0 -0.5227256985093053 1.2015777316348595 -2.2975742692490235 -8.140236684072583 0.21041032983202967 0.3139375965794391 0.4940618503168362 -0.3763231473569474 0.21041032983202967 0.3139375965794391 0.4940618503168362 -0.3763231473569474
516.0 0.0 0.0 0.0 0.0 -0.05073701651212634 0.10027311090789968 0.08486821944883217 -0.20373928592029966 -0.05073701651212634 0.10027311090789968 0.08486821944883217 -0.20373928592029966
517.0 -23.35820128569282 12.236527610821884 4.250920212189377 -2.383294810258242 0.06753620697377898 0.053744081429068544 0.08183624420394622 0.06817139221375902 0.06753620697377898 0.053744081429068544 0.08183624420394622 0.06817139221375902
518.0 -9.119395146828111 -0.36718355764266036 0.798534121415071 -3.4568229352210063 -0.00013923968429242043 -0.00016525582484984482 -0.00034705347256426295 -0.00041189843374797336 -0.00013923968429242043 -0.00016525582484984482 -0.00034705347256426295 -0.00041189843374797336
519.0 -438.5390927998897 81.22425705484768 365.7915497120473 -81.37639843089578 2.619732202519163 -7.937509776767891 -6.8747495459440975 20.826174002282848 2.619732202519163 -7.937509776767891 -6.8747495459440975 20.826174002282848
520.0 -0.06798742479305123 -1.061127629054796 -0.29062928623817336 -8.775655647561079 0.027441290543001942 -0.0007424330557773335 0.01193485182184674 -0.007551300735021791 0.027441290543001942 -0.0007424330557773335 0.01193485182184674 -0.007551300735021791
521.0 0.0 0.0 0.0 0.0 -0.023867582920148105 0.012871442580773534 0.005543884186282754 -0.016655598691137353 -0.023867582920148105 0.012871442580773534 0.005543884186282754 -0.016655598691137353
522.0 -1567.81429716232 -148.0406227657307 -50.214701894243184 -44.75232244415418 -0.00015249452808810166 0.0008135080342467678 -0.00027916637289848153 0.001489260566210202 -0.00015249452808810166 0.0008135080342467678 -0.00027916637289848153 0.001489260566210202
523.0 -0.07926938630803627 0.03757363251886708 0.017977255192404572 -0.007718920328300929 0.003976863027269672 0.002411997708413284 0.003513504610822695 0.003559696368093168 0.003976863027269672 0.002411997708413284 0.003513504610822695 0.003559696368093168
524.0 -16.651047643180558 -2.671123636571778 -11.971499456929546 -4.3268156962077065 0.0656946943522999 -0.08663018816071529 0.11577873760158924 -0.15267494464086231 0.0656946943522999 -0.08663018816071529 0.11577873760158924 -0.15267494464086231
525.0 -0.05613721370669338 -0.2411779428302211 -0.18584692874929923 -0.8314582072858298 -0.19843981970473742 -0.05895057678379872 -0.10527804050544046 -0.03020253743510406 -0.19843981970473742 -0.05895057678379872 -0.10527804050544046 -0.03020253743510406
526.0 -30.066020322926455 26.36701262478997 30.727842399855554 -34.011736237871176 0.049699932437631794 0.02909030169880472 0.04176703594147167 0.02315094579243561 0.049699932437631794 0.02909030169880472 0.04176703594147167 0.02315094579243561
527.0 25.18464172413445 -110.82819639413921 83.66716793009753 -360.6658185868718 -3.3560342108548023e-06 -1.1208968926866161e-05 7.315330663172085e-05 0.00024432800424987913 -3.3560342108548023e-06 -1.1208968926866161e-05 7.315330663172085e-05 0.00024432800424987913
528.0 0.0 0.0 0.0 0.0 0.01104815062947017 0.0023506894314273387 0.005620066224725321 0.0005307179000725721 0.01104815062947017 0.0023506894314273387 0.005620066224725321 0.0005307179000725721
529.0 -0.3134123042759743 0.025252271232367833 0.0270683476425313 -0.07190652715272386 0.006335605143972604 -0.03820027647898098 -0.076617219600101 0.03375129716648134 0.006335605143972604 -0.03820027647898098 -0.076617219600101 0.03375129716648134
530.0 -299.634810245123 125.06502488800575 586.8974622874804 -274.45705482674975 -0.3535066390561252 -1.3857444233610947 -1.5412029964258587 -6.04150876279713 -0.3535066390561252 -1.3857444233610947 -1.5412029964258587 -6.04150876279713
531.0 -6.272792443093232 -2.5840856060774655 -2.6865288701841994 -1.1076424057356944 -0.0958650629458802 0.09038604201000965 0.10469139529222361 -0.07287971455465207 -0.0958650629458802 0.09038604201000965 0.10469139529222361 -0.07287971455465207
532.0 0.0 0.0 0.0 0.0 0.0020129539063090994 0.020176565945689087 -0.001961696836415667 -0.006399324746282349 0.0020129539063090994 0.020176565945689087 -0.001961696836415667 -0.006399324746282349
533.0 -30.581807627797204 64.00565194986714 34.20199880182443 -73.07259458108166 0.01654635819269381 0.006484913195740371 0.006595221638359664 0.0026106668365544453 0.01654635819269381 0.006484913195740371 0.006595221638359664 0.0026106668365544453
534.0 -2.1887896838659766 23.64680054342942 1.4955107597728512 -48.76115876986485 2.3039110464927435e-05 2.7249479123398565e-05 8.809223846817963e-05 0.00010419098500900691 2.3039110464927435e-05 2.7249479123398565e-05 8.809223846817963e-05 0.00010419098500900691
535.0 -0.5576030678574121 0.537699443900329 1.0187573789929587 -1.5952755327750865 -0.00011741369555762211 0.00017826117676551236 -0.0012628443915794355 0.001917290195539407 -0.00011741369555762211 0.00017826117676551236 -0.0012628443915794355 0.001917290195539407
536.0 -3.323034842814958 1.6574334554494374 3.674789149159841 -9.622482955109028 -0.015863184913721524 0.00324375947508351 0.003679942342942122 -0.0007524874675295658 -0.015863184913721524 0.00324375947508351 0.003679942342942122 -0.0007524874675295658
537.0 -0.20089076677972806 -0.16361042933195885 -0.05851622386572347 -0.1972266991633549 0.0035474807680630233 -0.013730365674300238 -0.025855439372699157 0.10007232187214846 0.0035474807680630233 -0.013730365674300238 -0.025855439372699157 0.10007232187214846
538.0 -3.562262602112826 -0.8224769249751485 -3.302397280536275 -1.0274255450268275 -0.0013690594567965894 -0.00544255010291776 -0.010708663621206042 -0.03805753484799246 -0.0013690594567965894 -0.00544255010291776 -0.010708663621206042 -0.03805753484799246
539.0 -0.45710683345717773 0.5595534193112002 0.42758151732640926 -0.5234461941998557 0.00106599857342736 0.0004745038043968388 0.0018254439626437602 0.0028643533693561178 0.00106599857342736 0.0004745038043968388 0.0018254439626437602 0.0028643533693561178
540.0 -5.883417906503532 3.1310282674610974 7.069147647417672 -11.224744682604245 0.00012253960138072144 -0.0032893292396899195 0.00012617890665623448 0.00912705112275566 0.00012253960138072144 -0.0032893292396899195 0.00012617890665623448 0.00912705112275566
541.0 -0.05352255609867998 -0.014845391027046895 -0.025802257662499856 -0.007824134876428605 -0.2533322395246741 0.19702314949613 0.04756310205358298 -0.18607240337359687 -0.2533322395246741 0.19702314949613 0.04756310205358298 -0.18607240337359687
542.0 0.0 0.0 0.0 0.0 -0.16467055490182197 0.05545982670907381 0.06482444203440277 0.007888289721577133 -0.16467055490182197 0.05545982670907381 0.06482444203440277 0.007888289721577133
543.0 -0.6667946530926738 1.3560760647550523 1.7198302173407236 -4.004694502885592 0.0005562597924838922 -0.0002348853736789694 -0.0009885274366680848 -0.00035613717429381264 0.0005562597924838922 -0.0002348853736789694 -0.0009885274366680848 -0.00035613717429381264
544.0 0.029592577000707103 0.42967475136971556 -0.362665663412594 -0.3925764532440031 0.10325860835711329 -0.2700155224978617 -0.4321593814201605 1.1300727661654453 0.10325860835711329 -0.2700155224978617 -0.4321593814201605 1.1300727661654453
545.0 -0.3510730107212772 4.8698156212879065 -0.07346318583161432 -7.982858344246898 -0.015076441665401195 0.005999035970089244 -0.0031543800128667056 0.0013631459434329596 -0.015076441665401195 0.005999035970089244 -0.0031543800128667056 0.0013631459434329596
546.0 -0.0969974237272886 1.9652303273682865 0.2764425411180426 -7.513217335633899 -0.0007451585113043943 -0.0011262119063246779 -0.00026822631504217956 -0.0008879030678520956 -0.0007451585113043943 -0.0011262119063246779 -0.00026822631504217956 -0.0008879030678520956
547.0 -9.412168710922138 -0.07793239763792292 -0.013567276032378832 -0.0033975711982123973 0.025014628640685405 -0.01408534978937788 -0.036977719455983 0.10983561040585038 0.025014628640685405 -0.01408534978937788 -0.036977719455983 0.10983561040585038
548.0 -318.0797773612284 77.43934138432934 322.49965479531306 -75.19247072095534 2.2415004896208992e-05 1.3073815002248763e-05 -6.096428308625215e-06 -3.55581344953971e-06 2.2415004896208992e-05 1.3073815002248763e-05 -6.096428308625215e-06 -3.55581344953971e-06
549.0 -0.4675768839233734 0.22553898597761934 0.3088982321069259 -0.22238190420149595 -0.15167148604163383 -0.09520981456462047 -0.06668903441461112 -0.08071487404615278 -0.15167148604163383 -0.09520981456462047 -0.06668903441461112 -0.08071487404615278
550.0 0.0 0.0 0.0 0.0 0.21855489629068597 -0.2284773815624439 -0.18198226084288727 0.3512917254340972 0.21855489629068597 -0.2284773815624439 -0.18198226084288727 0.3512917254340972
551.0 -0.0008183398432833177 -0.002514281849581093 -0.0010559320928209776 -0.0032442644912876436 0.011774108506537092 -0.013757135375370771 0.0012594033554367016 -0.0020298530052673784 0.011774108506537092 -0.013757135375370771 0.0012594033554367016 -0.0020298530052673784
552.0 0.0 0.0 0.0 0.0 -0.05269449989129357 0.012240890694190298 0.006754242284691476 0.003757782395808864 -0.05269449989129357 0.012240890694190298 0.006754242284691476 0.003757782395808864
553.0 0.0 0.0 0.0 0.0 -0.1538800797224536 0.03187259078703028 0.03697009753837571 -0.033618141598709766 -0.1538800797224536 0.03187259078703028 0.03697009753837571 -0.033618141598709766
554.0 0.0 0.0 0.0 0.0 -0.06623939253006783 0.1946977020674319 0.20363192563964355 -0.5050752059915979 -0.06623939253006783 0.1946977020674319 0.20363192563964355 -0.5050752059915979
555.0 -5.566859253182482 4.008264727869135 1.2786136180626928 -1.2006252702103044 -0.10224230341672054 0.17223778830681016 0.1028150036460363 -0.17314340612441648 -0.10224230341672054 0.17223778830681016 0.1028150036460363 -0.17314340612441648
556.0 -30.998456552635222 0.3026325230218492 6.086509879018377 -0.17831202422693143 -0.12920901911802743 0.17038516958811764 -0.03202375617418688 0.04222904224358499 -0.12920901911802743 0.17038516958811764 -0.03202375617418688 0.04222904224358499
557.0 -0.05666023924701277 0.11004063547539362 -0.10780527685375299 -0.1734430372109931 -0.001275994620762148 -0.003981766553872449 -0.02357191939400813 0.1126058150191528 -0.001275994620762148 -0.003981766553872449 -0.02357191939400813 0.1126058150191528
558.0 -24.82098572608638 -2.8119896547255405 -7.8735511906620514 -0.9677240261631272 0.0014405505792756809 0.0026919280235173375 0.008371492731615372 0.015689414198251074 0.0014405505792756809 0.0026919280235173375 0.008371492731615372 0.015689414198251074
559.0 0.7878496964031767 5.858064299060911 -2.8229792312916104 -16.42489984647717 0.00025372445032878466 0.00027144615144399813 0.00013793783402876373 0.00014757227432007198 0.00025372445032878466 0.00027144615144399813 0.00013793783402876373 0.00014757227432007198
560.0 -252.3247558187047 -53.00680579614418 210.32960171031272 39.38438646523697 4.3779508152351756e-05 3.9942494170625933e-05 7.863084688579328e-05 7.173931996763344e-05 4.3779508152351756e-05 3.9942494170625933e-05 7.863084688579328e-05 7.173931996763344e-05
561.0 -6.420078077956408 3.293546245031145 0.7630241412473954 -6.051311039544047 6.286195670569673e-06 6.353317112892162e-06 0.0001292827369137271 0.00013066316543103743 6.286195670569673e-06 6.353317112892162e-06 0.0001292827369137271 0.00013066316543103743
562.0 -3.422444167629435 0.6167481262983426 3.2446140287677774 -0.702924151266146 0.21504149102120954 -0.7098935244580574 -0.2730212641057585 0.23163815423710157 0.21504149102120954 -0.7098935244580574 -0.2730212641057585 0.23163815423710157
563.0 0.0 0.0 0.0 0.0 -1.0198070443687983 1.4352197791972243 1.4637686496020286 -2.080921512257968 -1.0198070443687983 1.4352197791972243 1.4637686496020286 -2.080921512257968
564.0 0.0 0.0 0.0 0.0 -0.24099074406259774 0.22328476261219607 0.20518969575931523 0.15236137613315606 -0.24099074406259774 0.22328476261219607 0.20518969575931523 0.15236137613315606
565.0 -1.6819047930393312 -9.71552847251188 -2.2923711739867683 -15.180092801835045 -0.1769757549232918 0.15067705934173686 0.10249894708354547 -0.08671578549333794 -0.1769757549232918 0.15067705934173686 0.10249894708354547 -0.08671578549333794
566.0 -23.076618766709228 38.34871045074502 38.893953591810124 -69.21151180746685 0.001889108676461316 0.002350657782108287 0.0025984280636991504 0.0034641839437531494 0.001889108676461316 0.002350657782108287 0.0025984280636991504 0.0034641839437531494
567.0 -0.012291245570226893 0.0037238378694993963 -0.0005374016235112997 -0.005080955177455692 -0.10614703330962293 -0.029839790612512032 0.01856605815372584 0.00515803033798768 -0.10614703330962293 -0.029839790612512032 0.01856605815372584 0.00515803033798768
568.0 0.0 0.0 0.0 0.0 -0.08507120742689712 0.2893119388914757 0.08405262075806151 -0.06702185371515604 -0.08507120742689712 0.2893119388914757 0.08405262075806151 -0.06702185371515604
569.0 -0.060878665002077975 -0.0833470819423377 -0.11785618173759707 -0.17686262377112855 -0.5711607254974846 -5.7499620723281115 -6.798700873064121 21.42946758938573 -0.5711607254974846 -5.7499620723281115 -6.798700873064121 21.42946758938573
570.0 -5.982985135574261 2.8956182360913827 2.3982088022924333 -2.8329663963361353 -0.0023829117373501 -0.007363760023217798 -0.005401673075293204 -0.016692445476209433 -0.0023829117373501 -0.007363760023217798 -0.005401673075293204 -0.016692445476209433
571.0 -3.033357621025954 2.202431331164315 7.70118625829088 -8.325589175517289 0.0 0.0 0.0 0.0 0.0 0.0 0.0 0.0
572.0 -9.604738892246168 -19.570264060608928 -5.407864185611773 -16.72682795154178 0.012186064609478313 -0.00017892659442333167 0.015483665217539326 -0.00022734488740609998 0.012186064609478313 -0.00017892659442333167 0.015483665217539326 -0.00022734488740609998
573.0 -0.267462580600614 -0.9068196311342873 -0.2343744853105282 -1.8732382249844661 0.0014046476504038024 -0.0008985827720846863 -0.0018251999560367454 0.0011676189652492985 0.0014046476504038024 -0.0008985827720846863 -0.0018251999560367454 0.0011676189652492985
574.0 -7.608018289563903 14.054550452926843 30.98995500180506 -59.65595056519151 0.006578326505065934 0.017202105701106873 0.006468100636634635 0.020202992219338595 0.006578326505065934 0.017202105701106873 0.006468100636634635 0.020202992219338595
575.0 -0.28892181301697417 0.32412275579727656 0.1950246558330559 -0.30115485107857237 -0.0032774988848692896 -0.022142833829243688 -0.003443018209821775 -0.02621088799592221 -0.0032774988848692896 -0.022142833829243688 -0.003443018209821775 -0.02621088799592221
576.0 -1.7421804166963661 10.002970017333295 1.7475481787515137 -8.290785979020063 -0.002040167849923051 0.001714040700663829 0.0014370172911985462 0.005049575705422008 -0.002040167849923051 0.001714040700663829 0.0014370172911985462 0.005049575705422008
577.0 -1.7564043742106297 3.9952772728318666 2.220551548190294 -5.8484690767898115 -0.029027935834085618 -0.0010802732604171857 0.03877716891352011 0.0014430905087907655 -0.029027935834085618 -0.0010802732604171857 0.03877716891352011 0.0014430905087907655
578.0 -0.35664572440826764 -0.05814309572706395 -0.03238035984105176 -0.008999110637796471 -0.003733582193301307 -0.05668720922631048 -0.01985590425593955 -0.2912296989422026 -0.003733582193301307 -0.05668720922631048 -0.01985590425593955 -0.2912296989422026
579.0 -0.1059083889843242 4.276076955676675 1.2753883628050575 -8.930193752601433 0.01020068843691842 0.014497657320339277 0.008586734279861457 0.012643237534664387 0.01020068843691842 0.014497657320339277 0.008586734279861457 0.012643237534664387
580.0 -67.81065695135865 32.8669458450261 51.883154670213024 -111.77474089018922 0.0 0.0 0.0 0.0 0.0 0.0 0.0 0.0
581.0 -0.5055426235614062 -0.10351504705135164 -0.11649549342661274 -0.09053320295130333 0.0 0.0 0.0 0.0 0.0 0.0 0.0 0.0
582.0 -0.23511445451921753 0.2648833204429958 0.2603104543515222 -0.3993108037724783 6.635137127921935e-05 2.0539553506565934e-05 0.000832236220061634 0.0002576248243630758 6.635137127921935e-05 2.0539553506565934e-05 0.000832236220061634 0.0002576248243630758
583.0 -17.756387873356452 -4.404488309589294 8.418519947630614 -9.936616475221593 -0.0801930227128194 0.04506946566456073 0.024862483509103934 -0.011550537919583086 -0.0801930227128194 0.04506946566456073 0.024862483509103934 -0.011550537919583086
584.0 0.0 0.0 0.0 0.0 -0.0018660777120554188 0.007496999129143107 -0.019719594041512686 0.06175816322888668 -0.0018660777120554188 0.007496999129143107 -0.019719594041512686 0.06175816322888668
585.0 -9.97405952006271 209.49959036663145 -13.821775493543965 -1146.6706841213008 2.2237073556151077 0.25626832454885995 -2.584927364248741 -0.2978966647944046 2.2237073556151077 0.25626832454885995 -2.584927364248741 -0.2978966647944046
586.0 -4.5514087487401715 1.6798302882821958 -0.01869817694844822 -13.410412197088387 -0.9951240443188193 0.5212795309580812 0.45687954209331166 -0.31609115104758106 -0.9951240443188193 0.5212795309580812 0.45687954209331166 -0.31609115104758106
587.0 -18.21697342222485 18.99994757998737 1.395464954525326 -9.998622201516334 -0.0002498647240882948 6.187925599775088e-06 4.5103879284482705e-06 -1.1170022110643776e-07 -0.0002498647240882948 6.187925599775088e-06 4.5103879284482705e-06 -1.1170022110643776e-07
588.0 -4.435563288036582 -2.6642743601160483 12.761287213690578 -85.85302114744708 0.014398531320050444 0.000576668096923943 -0.0020156346195879795 -8.072713489557097e-05 0.014398531320050444 0.000576668096923943 -0.0020156346195879795 -8.072713489557097e-05
589.0 -47.15817936862586 28.267777581525674 51.374262794401915 -54.97770739469744 -0.11283348127345702 -0.10358268587939233 -0.07867777653195573 -0.07222727970652203 -0.11283348127345702 -0.10358268587939233 -0.07867777653195573 -0.07222727970652203
590.0 -1.2454255842043251 0.011061499928370935 0.011889130055896355 -0.2805177510569267 0.0 0.0 0.0 0.0 0.0 0.0 0.0 0.0
591.0 -2.4693006005540337 6.758194409112527 12.949292682860232 -37.03420608181895 1.6437952103203526 -0.1667045933399443 -0.016629816464381695 0.0016530181226888903 1.6437952103203526 -0.1667045933399443 -0.016629816464381695 0.0016530181226888903
592.0 -0.2997690895193377 -0.02058517129832059 -0.19946796654322202 -0.33465496254018073 0.03898981563247555 -0.042154595766823524 -0.02888398672301917 0.031228482738169423 0.03898981563247555 -0.042154595766823524 -0.02888398672301917 0.031228482738169423
593.0 -11.684846884547973 9.630822573199683 12.695616599994313 -10.818273355472513 -0.0007628742505759866 -0.0004994369490958438 0.00041213887840270153 -0.0002446220053122117 -0.0007628742505759866 -0.0004994369490958438 0.00041213887840270153 -0.0002446220053122117
594.0 -0.5542240632285373 0.9805759768578255 0.9688184477687544 -1.7143834171964711 0.009912755978441014 0.005975633439046633 -0.02558767873406322 -0.03908323633426416 0.009912755978441014 0.005975633439046633 -0.02558767873406322 -0.03908323633426416
595.0 -0.11726921821650094 0.008213358803667505 0.22509817462151727 -0.32809561473166704 0.001340451873223323 -0.007526683243524553 0.01866573146564859 -0.11287361743557245 0.001340451873223323 -0.007526683243524553 0.01866573146564859 -0.11287361743557245
596.0 0.0 0.0 0.0 0.0 -2.073281182921829 0.8081656457696708 -0.22487976790596878 1.6206266794780144 -2.073281182921829 0.8081656457696708 -0.22487976790596878 1.6206266794780144
597.0 -0.7273974477483679 -2.898690531608308 -0.39987775747270304 -1.6079380728187969 -0.006452617030590748 0.038515040927605874 0.009849075593761131 -0.053517732321121586 -0.006452617030590748 0.038515040927605874 0.009849075593761131 -0.053517732321121586
598.0 -226.46150484353564 294.03966755258324 304.06661897835204 -430.87037256203666 -0.0003015146330448458 -0.0006359439220460518 -0.00025579089274617493 -0.000539505037994189 -0.0003015146330448458 -0.0006359439220460518 -0.00025579089274617493 -0.000539505037994189
599.0 -0.8074268502146427 1.0411111415149694 -0.7198173666280812 -3.4229347978008837 -0.03227870027806005 0.03057548510409941 0.017574815943686834 -0.016588640396794134 -0.03227870027806005 0.03057548510409941 0.017574815943686834 -0.016588640396794134
600.0 -60.55406217731063 -8.081418180435733 19.864871665894942 -20.06068055911813 -0.18695023791629517 0.2660554764741422 0.018723173866096832 -0.17340005664796412 -0.18695023791629517 0.2660554764741422 0.018723173866096832 -0.17340005664796412
601.0 -1.9805224142520403 5.229570370471034 6.1486415085907575 -16.251987295190506 0.008823026223591253 0.005955722631005051 0.006296069008210873 0.006288648739666646 0.008823026223591253 0.005955722631005051 0.006296069008210873 0.006288648739666646
602.0 -24.014587670795724 13.795485787428001 22.051825401879384 -31.413998807315444 0.002137890484721567 0.001028211849572719 -0.00045564323420422566 -0.0003526017997947494 0.002137890484721567 0.001028211849572719 -0.00045564323420422566 -0.0003526017997947494
603.0 0.0 0.0 0.0 0.0 -0.022339762637636693 0.0243614590586419 0.09806285043917981 -0.11333365739390205 -0.022339762637636693 0.0243614590586419 0.09806285043917981 -0.11333365739390205
604.0 -17.328254303409263 2.11790559215972 3.2682661624806046 -6.3014667675467 0.0 0.0 0.0 0.0 0.0 0.0 0.0 0.0
605.0 -9.09480105630269 -9.065456359374856 5.594876139472057 -11.838578934127163 8.821869175731209 -2.8510176854268896 -4.36013112765192 1.4090903762110676 8.821869175731209 -2.8510176854268896 -4.36013112765192 1.4090903762110676
606.0 -3.7039027366867465 4.822749064996016 1.6705471870767448 -3.6733304469825514 0.19536007117946302 -8.802318865095877 -0.020052365495366473 0.9034973934234368 0.19536007117946302 -8.802318865095877 -0.020052365495366473 0.9034973934234368
607.0 0.0 0.0 0.0 0.0 -0.0027930679049290603 -0.0007729385346775841 -0.0014363585282035028 -0.0008169960806303926 -0.0027930679049290603 -0.0007729385346775841 -0.0014363585282035028 -0.0008169960806303926
608.0 -2.3451828135174697 3.3977354926279673 6.110924418886335 -9.590905142231371 -0.005223544476578549 -0.002721363121531923 -0.002345715547113236 -0.001222071298931353 -0.005223544476578549 -0.002721363121531923 -0.002345715547113236 -0.001222071298931353
609.0 -1388.2462939884308 -20.12958529903756 -5.839822630990113 -352.0413754359723 -0.0002782614037644821 -0.000668607187216885 0.00021526874317251608 0.0005172482669932594 -0.0002782614037644821 -0.000668607187216885 0.00021526874317251608 0.0005172482669932594
610.0 -3.1341972698984364 -1.9816577757705165 1.44254254187556 -3.473859614723169 0.0 0.0 0.0 0.0 0.0 0.0 0.0 0.0
611.0 0.0 0.0 0.0 0.0 -0.01433415021358024 0.03137413586950981 0.003429164011236073 -0.006794380156495074 -0.01433415021358024 0.03137413586950981 0.003429164011236073 -0.006794380156495074
612.0 0.0 0.0 0.0 0.0 0.0024594687059364953 0.010494419486687036 -0.0009649553222695383 -0.0043966710704773345 0.0024594687059364953 0.010494419486687036 -0.0009649553222695383 -0.0043966710704773345
613.0 -0.3670093724167844 0.744139771509041 1.4703370550928212 -4.842356806839204 0.0 0.0 0.0 0.0 0.0 0.0 0.0 0.0
614.0 0.0 0.0 0.0 0.0 0.04977426547260166 -0.02140978479288143 -0.03310657420932099 0.00039717128456963346 0.04977426547260166 -0.02140978479288143 -0.03310657420932099 0.00039717128456963346
615.0 -166.84953429989062 297.6705185016504 378.1345450078478 -735.0081771237458 0.0 0.0 0.0 0.0 0.0 0.0 0.0 0.0
616.0 0.0 0.0 0.0 0.0 0.134432578678055 -0.03676943481016126 -0.09083345336774734 0.026260092053396286 0.134432578678055 -0.03676943481016126 -0.09083345336774734 0.026260092053396286
617.0 -0.09310513195903986 -0.07056529608482962 -0.06561707481824466 -0.05093524811511163 -0.005064914212062916 -0.0368097932039086 -0.010704721894293476 -0.06960018639470704 -0.005064914212062916 -0.0368097932039086 -0.010704721894293476 -0.06960018639470704
618.0 -0.07127355077889959 -0.12329986107736965 0.039707683850037125 -0.197331651656394 0.08437747263096725 0.014374754823597215 -0.0377070433260823 -0.006351001448874479 0.08437747263096725 0.014374754823597215 -0.0377070433260823 -0.006351001448874479
619.0 -73.83899087293915 -14.511551762709123 31.286664191392745 -123.3131682323385 -0.03420763480766525 -0.005986895205316254 -0.004856126442019206 -0.0008499014993465598 -0.03420763480766525 -0.005986895205316254 -0.004856126442019206 -0.0008499014993465598
620.0 -5.208614691098745 -1.4982578297027944 -5.169345706584128 -23.278317412301753 0.009284447258312468 -0.010123042228689589 0.1497764887260443 -0.16330468341894339 0.009284447258312468 -0.010123042228689589 0.1497764887260443 -0.16330468341894339
621.0 0.0 0.0 0.0 0.0 -0.042327157212393524 -0.026224389423035833 -0.03070357287575579 -0.046024776642214195 -0.042327157212393524 -0.026224389423035833 -0.03070357287575579 -0.046024776642214195
622.0 0.06116115447684484 -0.7906568699701638 8.800526139838075 -36.01309497978562 -0.002887389939977192 -0.0046568038496041944 0.0006703679014732645 -0.00027805204957815873 -0.002887389939977192 -0.0046568038496041944 0.0006703679014732645 -0.00027805204957815873
623.0 -0.549733970110971 0.8957440813585111 4.782051299115335 -11.439624394224648 0.0003527044995041447 6.939503435454413e-05 0.00023083557081199303 0.0001543624060029315 0.0003527044995041447 6.939503435454413e-05 0.00023083557081199303 0.0001543624060029315
624.0 -0.060682068148366276 -0.34076247406246074 -0.13161571793852667 -1.4650481171667835 -0.06963213211896255 0.26494910499694335 0.26217714136321935 -0.1519196187867193 -0.06963213211896255 0.26494910499694335 0.26217714136321935 -0.1519196187867193
625.0 -0.17075767257019964 -0.09078949218292916 0.018541920411410426 -0.04007147832378921 0.009119967440795684 -0.03729449714199889 -0.00713429833429348 0.03001047071091254 0.009119967440795684 -0.03729449714199889 -0.00713429833429348 0.03001047071091254
626.0 -6.297930883950154 -0.9240346229184877 -2.441282722289739 -6.17450108862637 -0.12902149380977496 0.10977234938501232 0.1584679234585377 -0.13482556856654587 -0.12902149380977496 0.10977234938501232 0.1584679234585377 -0.13482556856654587
627.0 -0.23773943603702907 -0.08549953968268523 -0.14138644179183124 -0.18227909195075034 -0.005432788808293884 0.0036165879883385986 0.003970716864973162 -0.002643291949253076 -0.005432788808293884 0.0036165879883385986 0.003970716864973162 -0.002643291949253076
628.0 -0.654260560519341 -0.24827321231014032 1.8141042561490657 0.05511159303560867 -3.1362667011839136e-05 0.0021106089769393948 0.00016131568951383306 -0.01085603919719385 -3.1362667011839136e-05 0.0021106089769393948 0.00016131568951383306 -0.01085603919719385
629.0 -0.0030480253447814766 0.01547924083155804 0.02659235621648832 -0.17453667635239628 0.20919268318458112 -0.11231532807077578 -0.03853832067870456 0.0306584626553299 0.20919268318458112 -0.11231532807077578 -0.03853832067870456 0.0306584626553299
630.0 -1.2803996940929987 -10.497471715887098 -1.9162523547843588 -19.068003011184206 0.0036345990333122137 0.0014556664739078587 0.0001901406727168272 7.615183960139364e-05 0.0036345990333122137 0.0014556664739078587 0.0001901406727168272 7.615183960139364e-05
631.0 -3.711991824149314 0.9770511820461188 2.4974260270807354 -0.6846114931234281 -0.001936412617809119 0.007244425770147225 0.025808364858143026 -0.09655317350453428 -0.001936412617809119 0.007244425770147225 0.025808364858143026 -0.09655317350453428
632.0 -49.24410084858346 27.598103451862926 29.032408545803058 -16.642873306701166 -0.0004771401817517381 0.0012106585339052298 -0.000602861165931044 -0.028621450447082867 -0.0004771401817517381 0.0012106585339052298 -0.000602861165931044 -0.028621450447082867
633.0 -0.9691982949692514 3.401778264866917 1.09736799909159 -9.059399281805153 5.009429744044781e-05 7.140345174993228e-05 -2.2440498510398162e-05 -3.198625661007611e-05 5.009429744044781e-05 7.140345174993228e-05 -2.2440498510398162e-05 -3.198625661007611e-05
634.0 -32.062234241755185 8.63020673408074 7.100569494781472 -9.31518092230903 0.0035670616827353 0.004005570740655664 -0.00308962126551839 -0.0034694372123607454 0.0035670616827353 0.004005570740655664 -0.00308962126551839 -0.0034694372123607454
635.0 -246.5760642065245 13.97884356227608 52.50473560349602 -3.1941514701450395 -0.9564790502784108 2.055214557831969 4.748567136925751 -10.203527523644839 -0.9564790502784108 2.055214557831969 4.748567136925751 -10.203527523644839
636.0 -0.28877754774439957 0.12444951326955599 0.3980779691034967 -0.1715528436515172 0.019167583874897563 0.3877127651587093 0.04095951422697224 0.8045975148889599 0.019167583874897563 0.3877127651587093 0.04095951422697224 0.8045975148889599
637.0 -262.55130945762244 548.7209722495735 325.67485545753084 -690.3722779785596 0.00206345741975517 0.0023028970329788123 0.0016282736232018703 0.0018531714848081778 0.00206345741975517 0.0023028970329788123 0.0016282736232018703 0.0018531714848081778
638.0 0.01174414747718258 0.1829033071245511 -0.3060493860934357 -1.814852708310342 -0.0001609205203281774 -6.972629772567967e-05 -8.671195710729929e-05 -3.7571987247553256e-05 -0.0001609205203281774 -6.972629772567967e-05 -8.671195710729929e-05 -3.7571987247553256e-05
639.0 -0.010405884240211497 0.08283382396991694 0.022164232906312684 -0.17643365278801432 -0.002210860024848027 -0.0008431272612034892 -0.0008474552204487142 -0.0059311645257981195 -0.002210860024848027 -0.0008431272612034892 -0.0008474552204487142 -0.0059311645257981195
640.0 -2.278688441897891 4.141940692604154 4.806223472701614 -8.75931922608175 0.06663631791411118 0.015281306080639954 0.020202270067887256 0.005135395830831058 0.06663631791411118 0.015281306080639954 0.020202270067887256 0.005135395830831058
641.0 -16.289254162981987 16.833750993932675 9.603751329720835 -20.267326911749404 -0.025499384760214884 0.023459895968729244 0.037303281728616015 -0.034181208538628584 -0.025499384760214884 0.023459895968729244 0.037303281728616015 -0.034181208538628584
642.0 -1.7042938342378047 0.1090821574523873 -0.36486625717668825 -0.04657062674522532 0.011274011852933065 -0.01281029269568479 0.026450851854977794 0.04952345667254716 0.011274011852933065 -0.01281029269568479 0.026450851854977794 0.04952345667254716
643.0 -7.028214432299038 -10.59705967666014 -8.294352780122242 -12.640132621131006 -0.019367494973101373 -0.013975593107406314 0.00046998754465728173 0.019889478262577844 -0.019367494973101373 -0.013975593107406314 0.00046998754465728173 0.019889478262577844
644.0 -0.038920150053992804 -0.02833131158094481 0.07900473538838082 -0.17322412159475314 0.00036033122973940185 0.00015048620189520788 0.0002075062435091851 8.666144890583923e-05 0.00036033122973940185 0.00015048620189520788 0.0002075062435091851 8.666144890583923e-05
645.0 -17.765511862429555 4.832640263916964 6.69963914074111 -1.8405288825219226 4.3834543159601796e-05 -0.0013960583076358252 -0.0020769176508244266 0.06555522262387228 4.3834543159601796e-05 -0.0013960583076358252 -0.0020769176508244266 0.06555522262387228
646.0 -73.45377604866006 11.24947392986539 -4.422081666831234 -5.4448426545525255 -0.0003471616694224064 -0.00043334963004038545 9.939073448693768e-05 0.0001240659376106133 -0.0003471616694224064 -0.00043334963004038545 9.939073448693768e-05 0.0001240659376106133
647.0 -0.001255325378172614 -0.00013916021286837946 0.0002565041457655697 2.8434995537428088e-05 -0.18848366963948782 0.13248757713117382 0.145043807063362 -0.09773744445982475 -0.18848366963948782 0.13248757713117382 0.145043807063362 -0.09773744445982475
648.0 -16.16159056654252 6.944151183223779 3.8059021267260422 -2.879486962111902 0.0006196516702295114 0.000610593005068637 0.000738475540960405 0.0007276797939682634 0.0006196516702295114 0.000610593005068637 0.000738475540960405 0.0007276797939682634
649.0 0.07221593446089442 4.080496386748112 -2.4934501473659747 -22.573893286341065 -0.29082675274682784 -0.11498013643460228 -0.09728368559574943 0.08272874449376011 -0.29082675274682784 -0.11498013643460228 -0.09728368559574943 0.08272874449376011
650.0 -0.4256985271432803 0.44063577468497317 5.993181549752897 -6.108879010215568 0.0022696092796732604 -0.004508689977190344 -0.0015352343023432914 0.0030498181222675053 0.0022696092796732604 -0.004508689977190344 -0.0015352343023432914 0.0030498181222675053
651.0 -0.0011321360591899094 -0.00095765768813026 -0.0024137590074062723 -0.0021706930077937214 -0.007219033463839783 0.007006183171738879 0.013028854296131267 -0.056794701863073574 -0.007219033463839783 0.007006183171738879 0.013028854296131267 -0.056794701863073574
652.0 -0.15789626339947707 0.23757125242817428 0.06579192465180153 -0.4197436743273487 -0.010058879105056064 0.011966850769908367 0.19382027087763412 -0.2251841391474845 -0.010058879105056064 0.011966850769908367 0.19382027087763412 -0.2251841391474845
653.0 -27.78897053218005 23.93650126660835 19.086713391286736 -16.5140000598934 0.0 0.0 0.0 0.0 0.0 0.0 0.0 0.0
654.0 -318.5204447661314 206.31308671225452 69.96710343682001 -239.7024488871482 4.431588780843695 5.570395949985632 3.9843659458928826 5.001870803683521 4.431588780843695 5.570395949985632 3.9843659458928826 5.001870803683521
655.0 -22.92256316828806 15.58606209566587 23.883625233747107 -17.040907593907285 0.0 0.0 0.0 0.0 0.0 0.0 0.0 0.0
656.0 0.0 0.0 0.0 0.0 0.26719107662323516 -0.1921060196952419 -0.0795419384310642 0.035423608682871685 0.26719107662323516 -0.1921060196952419 -0.0795419384310642 0.035423608682871685
657.0 -1.235605117862144 -0.03802722901544686 -0.6443480472225849 -4.051521502920032 -4.570425926483213e-05 -1.3238944364987234e-05 0.00014736680621058986 4.268707074679728e-05 -4.570425926483213e-05 -1.3238944364987234e-05 0.00014736680621058986 4.268707074679728e-05
658.0 0.0 0.0 0.0 0.0 -0.01772263710508195 0.12821487287202113 -0.022657219293024968 0.07757324288843381 -0.01772263710508195 0.12821487287202113 -0.022657219293024968 0.07757324288843381
659.0 0.0 0.0 0.0 0.0 -0.24096104762232837 0.04084286243030692 0.24129118804928174 -0.14680343196513443 -0.24096104762232837 0.04084286243030692 0.24129118804928174 -0.14680343196513443
660.0 -4.703944202845202 3.1092371309536646 4.035697897657892 -2.9398117569833357 0.0001338487000362828 0.00039618250047168625 0.0006597587708541476 0.0019528383874798045 0.0001338487000362828 0.00039618250047168625 0.0006597587708541476 0.0019528383874798045
661.0 -0.5655935070665219 0.4855595642184796 7.333795579269515 -15.07503462545169 -0.01243567905257784 0.015277911552582056 0.014670734814928253 0.0047372531958207575 -0.01243567905257784 0.015277911552582056 0.014670734814928253 0.0047372531958207575
662.0 -29.13840237727101 13.98461202273731 15.318383824349553 -17.941847971932198 -0.003505481266720645 0.012423447915211388 0.0009657171044939296 -0.0034225075633431364 -0.003505481266720645 0.012423447915211388 0.0009657171044939296 -0.0034225075633431364
663.0 -6.476309561412064 0.9111765299710429 2.608340484203889 -1.4618702316223289 0.0003189572488782879 0.0008739256997236497 0.0019426961313741657 0.0067162839855460146 0.0003189572488782879 0.0008739256997236497 0.0019426961313741657 0.0067162839855460146
664.0 -8.08182633684196 2.255311137837986 13.436964117900946 -25.517191234161423 0.005848698835505475 0.012592476916844205 0.03329644317056236 -0.2921402680791786 0.005848698835505475 0.012592476916844205 0.03329644317056236 -0.2921402680791786
665.0 -3.7933661263516774 -2.4654777433357102 7.684464754207097 -18.312679526870593 -0.006877011187899877 0.0007966720488443591 -0.003215935318175508 -0.03799402025111077 -0.006877011187899877 0.0007966720488443591 -0.003215935318175508 -0.03799402025111077
666.0 -0.1018878507682005 0.7897321134841423 -0.5340806230097171 -2.449630282841546 -0.03491079758948617 -0.029507833068581738 -0.02787106829558924 -0.023949020600796105 -0.03491079758948617 -0.029507833068581738 -0.02787106829558924 -0.023949020600796105
667.0 -0.16504199305310502 -0.07647597138803172 0.17803037746630726 -0.130296772947085 -0.00577913585634668 0.000928068286940413 0.00778002184301575 -0.0012493894803108233 -0.00577913585634668 0.000928068286940413 0.00778002184301575 -0.0012493894803108233
668.0 -0.33976346132873203 0.8599248218042546 2.0442824186826267 -6.20564630600565 -0.004001090729668026 0.01798265766550429 0.032264514828768145 -0.0019635614888930493 -0.004001090729668026 0.01798265766550429 0.032264514828768145 -0.0019635614888930493
669.0 -403.65829947700587 -36.171450165920966 -67.76983280464181 -6.87612173632917 0.2217553713390245 -0.5014162603335147 -0.5983110279496225 1.3486158028191015 0.2217553713390245 -0.5014162603335147 -0.5983110279496225 1.3486158028191015
670.0 -4.097129204292828 12.604446108417035 7.500931914884747 -23.671637595914053 -0.4878467111463713 0.26128203524646154 0.28227629910522467 -0.15117033227115956 -0.4878467111463713 0.26128203524646154 0.28227629910522467 -0.15117033227115956
671.0 -0.8613593888268328 -0.6587377149891036 1.2200087419569077 -2.272318689041165 -0.3917541953201278 0.3095072640540535 0.35305897328539243 -0.2574312112190256 -0.3917541953201278 0.3095072640540535 0.35305897328539243 -0.2574312112190256
672.0 -1.1643428040880246 4.293164864976467 1.0342264314192806 -6.397237885152949 0.01238065166807657 0.019585148974763187 0.007758010485118128 0.012272519667974689 0.01238065166807657 0.019585148974763187 0.007758010485118128 0.012272519667974689
673.0 0.38584081795743846 0.8381204555547515 -2.05863371600884 -4.468123195306644 -0.0010619846506205223 -0.00023803562092564873 2.3175009093004406e-05 -4.073051126862381e-05 -0.0010619846506205223 -0.00023803562092564873 2.3175009093004406e-05 -4.073051126862381e-05
674.0 0.01312957367043964 -0.14847511063691549 3.108989878833266 -2.3581887802025037 -0.00042477438580382465 0.0009003319447724418 -0.0006648262430187495 0.001565274666299122 -0.00042477438580382465 0.0009003319447724418 -0.0006648262430187495 0.001565274666299122
675.0 -0.15972892579905937 -0.036489217533925665 -0.1976609878398292 -0.15516315386642693 -14.453951402529041 -7.29772125459242 -8.182637538160447 -1.7114991176060732 -14.453951402529041 -7.29772125459242 -8.182637538160447 -1.7114991176060732
676.0 -0.5944319304812314 0.008157284088687489 0.1361173673787701 -0.14263874293994963 -0.0007523308351056711 0.003031672912650136 0.003717908908431821 0.0005137306612320027 -0.0007523308351056711 0.003031672912650136 0.003717908908431821 0.0005137306612320027
677.0 -201.23920206533194 119.05899333571097 65.0158545789204 -138.02467544138162 0.11913451386687778 0.21103873034823975 0.028382982566250315 0.05136734966002573 0.11913451386687778 0.21103873034823975 0.028382982566250315 0.05136734966002573
678.0 -5.560693716760907 -0.4284676380072864 -1.0877781677188465 -5.321623634293758 -0.006710113015120589 -0.0054221286737025426 1.5199082259926763e-05 -0.02831783084384485 -0.006710113015120589 -0.0054221286737025426 1.5199082259926763e-05 -0.02831783084384485
679.0 -7.207620382292774 4.79211564072924 6.516097880795211 -4.522241352863381 0.018787809205640677 0.04422382746989718 0.027225778288885616 0.07199367182903298 0.018787809205640677 0.04422382746989718 0.027225778288885616 0.07199367182903298
680.0 -0.18637768301094598 0.4415795859720576 0.2943366400168944 -0.941574847329512 -0.04141268194014491 -0.033446581594948635 -0.03146877900974577 -0.024230540467698878 -0.04141268194014491 -0.033446581594948635 -0.03146877900974577 -0.024230540467698878
681.0 -112.95936730673336 -159.04189595833623 -119.278342199794 -168.46604321981675 -0.39559042878067324 1.2773409105002793 1.62923404257063 -5.221464228908586 -0.39559042878067324 1.2773409105002793 1.62923404257063 -5.221464228908586
682.0 -0.26473637516425974 1.4125531986204147 0.05231395274831895 -2.413497148448428 -0.000478847106195558 -0.0012367563035271616 0.0069300530956920275 -0.002489507892740648 -0.000478847106195558 -0.0012367563035271616 0.0069300530956920275 -0.002489507892740648
683.0 -18.913629024693908 5.200791565152359 -2.586208305904974 1.2921956334107283 0.010803876140222006 0.006473485313300216 0.024806122928351763 0.12530975920248683 0.010803876140222006 0.006473485313300216 0.024806122928351763 0.12530975920248683
684.0 -0.6571225447786849 0.25935813684210274 -0.005490711597776421 -0.3691299832695887 0.0 0.0 0.0 0.0 0.0 0.0 0.0 0.0
685.0 -0.965295797511492 1.0417230057376003 4.831894210519201 -6.508035811280046 0.0017490706822928855 -0.01392517855046032 -0.015565139008139587 -0.026072730328640353 0.0017490706822928855 -0.01392517855046032 -0.015565139008139587 -0.026072730328640353
686.0 -0.10574905855153895 0.2894287954499106 0.25728158344980095 -0.7095102179180864 0.011387677334813216 0.019008999563463098 0.013219184377073302 0.0015262381819520835 0.011387677334813216 0.019008999563463098 0.013219184377073302 0.0015262381819520835
687.0 -2.174275568224812 5.311914171241327 0.055468896274538104 -5.973349587082558 0.044090891285828285 -0.09164978489208198 0.028271190090398895 -0.05876607196781784 0.044090891285828285 -0.09164978489208198 0.028271190090398895 -0.05876607196781784
688.0 -0.12672365977995073 0.11817496247894922 0.08300636021263527 -0.07740680407017621 -0.5244658166648629 0.5118591237790476 0.29581783581472176 0.233532239753934 -0.5244658166648629 0.5118591237790476 0.29581783581472176 0.233532239753934
689.0 -0.17583822703742136 0.20918375945710027 0.3454858859899705 -0.5157448891271703 -0.007526092001420262 -4.842918066190672e-05 0.008640283675485102 0.18040050826469786 -0.007526092001420262 -4.842918066190672e-05 0.008640283675485102 0.18040050826469786
690.0 -290.9186517418842 -53.82534418432352 -161.1320445239479 -30.165292277677246 0.572227559447368 -3.045020460674682 -4.598389199854189 9.232892725524882 0.572227559447368 -3.045020460674682 -4.598389199854189 9.232892725524882
691.0 -7.193194207137026 3.8015228991421828 8.033972349019802 -10.609579523147959 -0.00444793885594052 -0.001758803747189665 0.0026401447620699554 0.0020998749407463617 -0.00444793885594052 -0.001758803747189665 0.0026401447620699554 0.0020998749407463617
692.0 2.5105417778086903 11.917431151266792 -3.612101168371041 -25.71037820400227 0.02088820108741017 0.02215837945666593 0.02125043756171651 0.022233261266978777 0.02088820108741017 0.02215837945666593 0.02125043756171651 0.022233261266978777
693.0 -1.7607519074266904 3.2906824612676746 0.5408052403511727 -0.9364037636754418 0.007666489774762791 -0.001907615107402289 -0.0007276793843384764 -3.891231383221108e-05 0.007666489774762791 -0.001907615107402289 -0.0007276793843384764 -3.891231383221108e-05
694.0 -0.046516027074769956 -0.11451903440603435 -0.07637033791726396 -0.22994369359620936 -0.30388298002990727 0.16634229069917467 0.04294493656978694 -0.20433341423867502 -0.30388298002990727 0.16634229069917467 0.04294493656978694 -0.20433341423867502
695.0 -13.830290756562857 4.214432504221124 3.4366282772986594 -5.732935428242575 0.00013374606830661613 4.7197311449486205e-05 0.00015446494056017327 5.45087418265755e-05 0.00013374606830661613 4.7197311449486205e-05 0.00015446494056017327 5.45087418265755e-05
696.0 -3.2888096715486865 5.554487863010069 3.4595519887960338 -7.315526808733651 0.0002021321674249866 9.025512551587812e-05 0.0003283947004917016 0.00016200431830517637 0.0002021321674249866 9.025512551587812e-05 0.0003283947004917016 0.00016200431830517637
697.0 -6.852200997201579 5.081364524525085 9.86344990413625 -8.041733571494937 -4.8901613207588736e-05 0.0005303611156075959 0.0021997261679531734 -0.023857070307975497 -4.8901613207588736e-05 0.0005303611156075959 0.0021997261679531734 -0.023857070307975497
698.0 -0.14072390732143525 0.024090966199915916 -0.10364638157096467 -0.32541582121831075 -0.004741682488770117 0.0077698108038339545 0.0063079546740045355 -0.01226294732689356 -0.004741682488770117 0.0077698108038339545 0.0063079546740045355 -0.01226294732689356
699.0 -1.3481246503599529 -2.156157608714937 -0.4000176447202798 -3.696549338567033 -0.00038433885545057693 0.0006459744946479473 -0.00020504779090787346 0.0002761518527280421 -0.00038433885545057693 0.0006459744946479473 -0.00020504779090787346 0.0002761518527280421
700.0 -0.034905887870204856 0.012186161153926213 -0.02220710501783301 -0.19586622111651558 -0.0036862266671867814 0.01608571526483895 0.02548465973197149 -0.010659482720001473 -0.0036862266671867814 0.01608571526483895 0.02548465973197149 -0.010659482720001473
701.0 -5.588332622190457 13.233307965739058 8.458895768333981 -30.705051168904596 -3.931535888332552e-05 -5.806841480616177e-05 -0.00023105335338740153 -0.00034126362693702146 -3.931535888332552e-05 -5.806841480616177e-05 -0.00023105335338740153 -0.00034126362693702146
702.0 -2.4024752409851833 -0.39709426961816663 0.5680195267931851 0.02401737465321027 0.02514582596550153 -0.02132224664875109 -0.01751335041407496 0.016673172349375206 0.02514582596550153 -0.02132224664875109 -0.01751335041407496 0.016673172349375206
703.0 -3.2829411222787583 0.045390502540273436 2.469825819060252 -7.270691542801098 0.0014086868912688189 0.0005641828056023034 0.0012098592347814013 0.0004845518061490716 0.0014086868912688189 0.0005641828056023034 0.0012098592347814013 0.0004845518061490716
704.0 0.0 0.0 0.0 0.0 1.5744852707710375 1.2574616106726582 2.136322840892294 0.9578433921344076 1.5744852707710375 1.2574616106726582 2.136322840892294 0.9578433921344076
705.0 -0.0006834386274613141 0.00016018583106198748 0.0021397808290926123 -0.0005015264818611833 -0.023765796129423835 0.051247483751369144 0.1141773539655622 -0.2246589138012651 -0.023765796129423835 0.051247483751369144 0.1141773539655622 -0.2246589138012651
706.0 -3.9962588808784516 4.2108378010523015 2.8630682881562377 -3.1575067963363495 -0.013464254239056997 0.01719550130628107 0.012700236727870313 -0.003468464312444761 -0.013464254239056997 0.01719550130628107 0.012700236727870313 -0.003468464312444761
707.0 -11.69066998709618 21.36956396743311 22.38459243171976 -40.91111225405893 1.5041744494089196e-05 3.3751850256351155e-05 5.294013861840828e-05 0.00011879125003759644 1.5041744494089196e-05 3.3751850256351155e-05 5.294013861840828e-05 0.00011879125003759644
708.0 -0.6787676273505999 0.5258036281312649 0.44637966546375135 -0.4657397633554579 0.02464532828265576 -0.07770570118445601 -0.004208807142217573 -0.04555428499622129 0.02464532828265576 -0.07770570118445601 -0.004208807142217573 -0.04555428499622129
709.0 -2.2317635266355986 8.6456027804196 4.309402028681631 -28.34003478690553 0.0 0.0 0.0 0.0 0.0 0.0 0.0 0.0
710.0 -0.12252229626940012 0.34232510610444855 0.2515650535907432 -0.697196942568531 0.029065073537143004 0.038429702351674325 -0.08262949770825592 -0.0879323945884056 0.029065073537143004 0.038429702351674325 -0.08262949770825592 -0.0879323945884056
711.0 -17.58164936829036 7.336669888541052 2.7859513128439533 -1.2314810157275515 6.195493601901024e-05 -0.016123372392366848 -0.007063998895446291 0.026058717216626243 6.195493601901024e-05 -0.016123372392366848 -0.007063998895446291 0.026058717216626243
712.0 -0.2270513574495221 0.036200650834267864 -0.021564399196367687 -0.20187610070733597 0.0 0.0 0.0 0.0 0.0 0.0 0.0 0.0
713.0 -2.2621926311916454 7.157006410569014 2.561226235974958 -8.301335150105247 0.0 0.0 0.0 0.0 0.0 0.0 0.0 0.0
714.0 12.899408311813962 14.398897922147867 -158.94591980160467 -174.3412836786856 0.06642583872496459 -0.2480946639297035 0.5093703901494372 -1.9362195299570384 0.06642583872496459 -0.2480946639297035 0.5093703901494372 -1.9362195299570384
715.0 -0.6364462265845713 -0.06226251534074606 -0.052287010814622975 -0.6011526389235455 -0.012004387951113638 -0.006980514607573233 -0.0077747805041909045 -0.01385821995632803 -0.012004387951113638 -0.006980514607573233 -0.0077747805041909045 -0.01385821995632803
716.0 -15.602393494370967 16.89247447086408 23.496235632297836 -26.561558609536366 -0.01329982043106516 0.0012654845191437262 0.013690964861297377 -0.0013027021059354993 -0.01329982043106516 0.0012654845191437262 0.013690964861297377 -0.0013027021059354993
717.0 -0.3836110934503263 0.21594871387069084 0.21360483943955288 -0.3261880845154703 -0.010756818846316175 -0.0325875804644968 -0.05045145773836533 -0.15284174272054252 -0.010756818846316175 -0.0325875804644968 -0.05045145773836533 -0.15284174272054252
718.0 -0.320333633075926 -0.1553591348966346 -0.06214202787329136 -0.3679205064323583 -0.012788908410974147 0.07275401213275375 -0.03545104127711791 0.172013878468142 -0.012788908410974147 0.07275401213275375 -0.03545104127711791 0.172013878468142
719.0 -18.609390406486142 14.34301247071436 11.074769390273524 -8.889885534054951 -9.985944137437321e-05 -0.00044521152402749847 -0.000279978806413609 -0.001248252437458473 -9.985944137437321e-05 -0.00044521152402749847 -0.000279978806413609 -0.001248252437458473
720.0 -6.162332312084482 -1.2712320234962897 0.028494935224952833 -8.060616900545725 -0.00013760000223334056 -0.00014349322585636358 -0.00010255899345801727 -0.0001069514576527148 -0.00013760000223334056 -0.00014349322585636358 -0.00010255899345801727 -0.0001069514576527148
721.0 -2.888528264217178 -4.195203262877072 -3.1681310788467165 -4.622192326424149 -0.01045961328690285 0.04809914229093676 0.12459372117868668 -0.48349546684079 -0.01045961328690285 0.04809914229093676 0.12459372117868668 -0.48349546684079
722.0 -12.39197883564037 21.86839730228938 11.945825160575236 -29.872444802488967 -0.013155866601111278 -0.00028052001858718315 -0.004864766098543225 -0.00010095734626696133 -0.013155866601111278 -0.00028052001858718315 -0.004864766098543225 -0.00010095734626696133
723.0 -0.41684711281295644 0.41325269709586043 0.18236829782439828 -0.591286030367767 0.0002098137657724803 0.00015385357614816633 0.00023850221628771265 0.0001748904260882436 0.0002098137657724803 0.00015385357614816633 0.00023850221628771265 0.0001748904260882436
724.0 -6.822479543098656 2.9377883026505733 1.5488955625461192 -0.9509383963998824 0.0 0.0 0.0 0.0 0.0 0.0 0.0 0.0
725.0 -4.025704121497146 3.53533717165098 4.406401363470698 -4.366635731794896 -2.675044390644789e-05 -1.3350093792914042e-05 1.439880083263405e-05 7.185874832335759e-06 -2.675044390644789e-05 -1.3350093792914042e-05 1.439880083263405e-05 7.185874832335759e-06
726.0 0.0 0.0 0.0 0.0 -0.46583654651161016 0.8840783662338904 0.9518699074654646 -1.9646196932195532 -0.46583654651161016 0.8840783662338904 0.9518699074654646 -1.9646196932195532
727.0 -5.202622188698523 1.620064143097131 3.3078715019355536 -2.8718975695433286 -0.10864124725889171 0.07092995531914983 0.022801842557551938 -0.2596577657513316 -0.10864124725889171 0.07092995531914983 0.022801842557551938 -0.2596577657513316
728.0 -16.93923570606796 6.229449253862429 14.222989762381498 -14.799277819810833 -0.030906987910209998 0.03794589029463118 0.07830902718040625 -0.25244957630041237 -0.030906987910209998 0.03794589029463118 0.07830902718040625 -0.25244957630041237
729.0 -51.412092564094195 52.81581011786277 5.851397489046802 -52.83685451838709 0.03013593896279717 0.03081946826765846 0.03144085033921932 0.033468339396904294 0.03013593896279717 0.03081946826765846 0.03144085033921932 0.033468339396904294
730.0 -5.784645254317217 8.55256673970867 4.874056408143297 -9.287509038497314 0.003032411113692881 -0.0004984852685297486 0.007753972348983498 -0.0008559751500342618 0.003032411113692881 -0.0004984852685297486 0.007753972348983498 -0.0008559751500342618
731.0 -0.23234912177269254 -0.199941480090187 -0.13271869471003445 -0.16575115483876976 -0.046296973474281335 0.015545504988554634 -7.750139482632333e-05 3.6768124326517354e-07 -0.046296973474281335 0.015545504988554634 -7.750139482632333e-05 3.6768124326517354e-07
732.0 -0.08925063718253883 0.004726092444362041 0.01616332726705885 -0.0010421073415619988 0.042459638200001884 -0.07210940214790465 -0.05287195269413752 0.08979268455392499 0.042459638200001884 -0.07210940214790465 -0.05287195269413752 0.08979268455392499
733.0 -3.9412185702804976 5.8292828841532245 4.583714308975309 -6.99275562344607 0.011957752694892831 -0.023395868506321776 -0.014869659377014269 0.06446930632955816 0.011957752694892831 -0.023395868506321776 -0.014869659377014269 0.06446930632955816
734.0 -6.2867021123404925 -6.8431624678520375 -5.123612124805203 -12.578524059382886 0.004584202925402512 -0.006732948093247264 -0.13969860275897225 0.20771648250488184 0.004584202925402512 -0.006732948093247264 -0.13969860275897225 0.20771648250488184
735.0 -0.8517849604187108 1.9492382150729068 3.1077746559691315 -6.558296452569443 0.021855156865875913 -0.017540714981919184 -0.021528958140960203 0.01726300742254834 0.021855156865875913 -0.017540714981919184 -0.021528958140960203 0.01726300742254834
736.0 -485.8451018013573 505.6522714286752 577.375536288654 -609.278925232015 -0.2747054040775903 0.010158712682940385 -0.20941802513311725 0.006977875071354956 -0.2747054040775903 0.010158712682940385 -0.20941802513311725 0.006977875071354956
737.0 -0.13556108583395224 0.3190141500708504 0.6594690070159923 -2.261914914360445 -0.029715803426991195 -0.018865410159590305 -0.022485267693125893 -0.014290209484248466 -0.029715803426991195 -0.018865410159590305 -0.022485267693125893 -0.014290209484248466
738.0 -1.7472267574007365 0.47428940045584295 0.9182516684870355 -0.1820929962131198 0.001963540648607431 0.004011148568813855 0.005865839519057302 0.011982819815034313 0.001963540648607431 0.004011148568813855 0.005865839519057302 0.011982819815034313
739.0 0.0 0.0 0.0 0.0 6.4623268008822725 0.1486946181303821 1.2360967629354453 2.4971201341678695 6.4623268008822725 0.1486946181303821 1.2360967629354453 2.4971201341678695
740.0 57.04757837819887 131.6155927080385 -229.42968809572758 -475.977638914631 8.58578802065769 -0.42315854945705045 -1.3578334910941765 9.582851653660118 8.58578802065769 -0.42315854945705045 -1.3578334910941765 9.582851653660118
741.0 -7.431207355342231 0.6052127503111676 -1.2236675743628234 0.029455291889365538 -0.06321205978678221 0.11497200498199486 0.08421136568231756 -0.15666500148478496 -0.06321205978678221 0.11497200498199486 0.08421136568231756 -0.15666500148478496
742.0 -0.16829599062536016 0.37746702281778655 0.3261391755370837 -1.0618030528206712 -0.019851665398592136 0.0008618879630228329 -0.0072096210926087465 -0.0018851557279509822 -0.019851665398592136 0.0008618879630228329 -0.0072096210926087465 -0.0018851557279509822
743.0 -7.329029042866536 6.408126868926489 6.978891740128729 -12.25854853460353 -0.014906236874600421 0.027134250946311576 0.022801253329644673 -0.05854331145687158 -0.014906236874600421 0.027134250946311576 0.022801253329644673 -0.05854331145687158
744.0 -264.6410164540029 -251.43647114973606 -145.85360067766203 -453.23033192626394 -0.7055334863047906 0.45834391806004415 0.15702761130004556 -0.10198381358850826 -0.7055334863047906 0.45834391806004415 0.15702761130004556 -0.10198381358850826
745.0 -14.349259730613003 8.20493501459837 12.835298223335563 -8.631330320907155 0.006107729884243023 -0.06319322232282805 0.002255330040224106 0.011691119855874722 0.006107729884243023 -0.06319322232282805 0.002255330040224106 0.011691119855874722
746.0 -10.533672568837567 29.404243136067688 6.634116788338158 -30.900344902724676 0.018206488041781498 0.008927862652889761 0.004548869656032228 0.0022306159991841994 0.018206488041781498 0.008927862652889761 0.004548869656032228 0.0022306159991841994
747.0 -12.837846045126652 7.925360055453684 12.92305324798189 -8.156310694333111 0.0 0.0 0.0 0.0 0.0 0.0 0.0 0.0
748.0 -0.11253256881915125 0.008280050728239514 -0.01634468721604506 -0.034608024070343496 -0.08308046618306315 0.09715572966716093 0.04944649289154218 -0.05943822093811749 -0.08308046618306315 0.09715572966716093 0.04944649289154218 -0.05943822093811749
749.0 -6.094760781372795 3.9505398582799427 3.533382086258313 -2.5239968097887293 0.0033953194830499286 0.009624375330088225 0.007009370658747648 0.013565708434348983 0.0033953194830499286 0.009624375330088225 0.007009370658747648 0.013565708434348983
750.0 -604.858643132693 383.68267272594994 147.36284515479556 -189.9539736852721 -0.001061422157504698 -0.1686147090646686 0.0008885680546836288 0.14115556469714588 -0.001061422157504698 -0.1686147090646686 0.0008885680546836288 0.14115556469714588
751.0 0.0 0.0 0.0 0.0 -0.10166745523815138 0.10388675764121025 0.1136689990542255 -0.17286628432078016 -0.10166745523815138 0.10388675764121025 0.1136689990542255 -0.17286628432078016
752.0 -0.42205771752221294 0.23699900035637717 0.11954808963014679 -0.093593795165976 -0.0449931060306377 0.09627237041734453 0.026408608030861043 -0.03475838793397301 -0.0449931060306377 0.09627237041734453 0.026408608030861043 -0.03475838793397301
753.0 -5.27772465098942 15.438243162292228 1.6743543610051996 -6.638542837491189 0.1521180637693159 0.021669987739713695 0.06511131467919873 -0.048902963231619107 0.1521180637693159 0.021669987739713695 0.06511131467919873 -0.048902963231619107
754.0 -4.332221418107005 -0.721395249095129 8.773875380270908 -15.52424097780639 -0.018442329464812727 0.0882006388263958 0.008165488053593082 0.0033202301426532906 -0.018442329464812727 0.0882006388263958 0.008165488053593082 0.0033202301426532906
755.0 -0.10948511467338487 0.01372310657809657 0.1856735491635585 -0.2358242908446109 0.02131034900634578 -0.05887166170375924 -0.046031883590155864 0.07678673419616694 0.02131034900634578 -0.05887166170375924 -0.046031883590155864 0.07678673419616694
756.0 0.04300040538358489 -0.18709200548765298 1.8041753684679251 -3.044808783218315 -0.012887853855203083 0.03155914626571047 0.034447448537372034 -0.05693996788336395 -0.012887853855203083 0.03155914626571047 0.034447448537372034 -0.05693996788336395
757.0 -0.9172544246294556 0.7242103294780009 0.6755566660422959 -0.7507880906343586 0.0002009717045971825 0.0002915354276180959 0.0003413193475093092 0.00024229457424739166 0.0002009717045971825 0.0002915354276180959 0.0003413193475093092 0.00024229457424739166
758.0 -1.8594166613035275 1.4722159651355393 1.106195200356807 -1.2606230143852628 -0.0016233932000410708 -0.0024280604325882063 -0.0024851537837723434 -0.004737181716791231 -0.0016233932000410708 -0.0024280604325882063 -0.0024851537837723434 -0.004737181716791231
759.0 -0.13350465586847848 0.07005580070311433 -0.20973097672582494 -0.2966058004570276 0.001460004494690943 0.0007385167110966618 0.0020132172050673545 0.002647693088439778 0.001460004494690943 0.0007385167110966618 0.0020132172050673545 0.002647693088439778
760.0 -0.09729969520138212 0.009993419132509673 0.015766716098365545 -0.020394097317128934 -0.013536501471915183 0.006098022010667505 0.026339978697432622 -0.016748053448392135 -0.013536501471915183 0.006098022010667505 0.026339978697432622 -0.016748053448392135
761.0 -452.24925506572896 475.78285968431663 465.3529924308159 -489.644679371836 0.1940321417652708 0.48381008585957025 0.31140944049344427 0.7766242045099572 0.1940321417652708 0.48381008585957025 0.31140944049344427 0.7766242045099572
762.0 -0.04539125303952768 -0.08028255295352422 -0.10810852862981933 -2.220889254277305 -0.0005595432235006182 0.0002873694450375695 0.0008221176043160916 0.00016335628536382326 -0.0005595432235006182 0.0002873694450375695 0.0008221176043160916 0.00016335628536382326
763.0 -4.591300217613715 1.1732560277536128 0.6204982974980714 -0.30935695103328753 -0.0001429316494923346 0.0006338750876634031 0.022947855419134362 -0.10176943956888305 -0.0001429316494923346 0.0006338750876634031 0.022947855419134362 -0.10176943956888305
764.0 -4.057896229772238 6.9075757764925 5.062586670005098 -8.976164136904021 0.004802087952093022 0.001711522548520512 0.008225094479378305 0.0029315237050233146 0.004802087952093022 0.001711522548520512 0.008225094479378305 0.0029315237050233146
765.0 -28.86034994186645 42.85578125440827 17.15917390949751 -25.500585804852175 -0.13581503718085933 0.057555460376800927 0.1424306947164078 -0.07221564275551126 -0.13581503718085933 0.057555460376800927 0.1424306947164078 -0.07221564275551126
766.0 -0.5223087474242084 0.3165515598643174 2.3958054826889823 -1.6307085615956178 -0.00034652569087396717 -0.0005954265030405009 -0.000336879729647136 -0.002406311656475713 -0.00034652569087396717 -0.0005954265030405009 -0.000336879729647136 -0.002406311656475713
767.0 -0.0068228714628012855 -0.017494268534982663 -0.040015319264827785 -0.1771913190321107 0.018109936924890963 -0.013102649875671162 -0.029750479933231128 0.03073040823013026 0.018109936924890963 -0.013102649875671162 -0.029750479933231128 0.03073040823013026
768.0 -28.42402196712804 12.302388696475072 34.09712083702527 -15.55877912070804 0.0 0.0 0.0 0.0 0.0 0.0 0.0 0.0
769.0 0.0 0.0 0.0 0.0 0.04277381541112111 0.07473911033569235 0.07266952652056122 -0.017776761165408595 0.04277381541112111 0.07473911033569235 0.07266952652056122 -0.017776761165408595
770.0 -0.33711406415985895 0.10551490834236885 -0.13256768145400638 -0.11092210273584265 -0.0016053504814600853 0.004053816195599342 -0.0016307242273610313 -0.0008970390511695731 -0.0016053504814600853 0.004053816195599342 -0.0016307242273610313 -0.0008970390511695731
771.0 -1.7656907712375123 2.7742542926783713 2.156704683374284 -3.668767328539052 0.037166131542798866 0.004539340090673675 0.002786906279131859 0.0006793154174590576 0.037166131542798866 0.004539340090673675 0.002786906279131859 0.0006793154174590576
772.0 -7.716027324795278 6.911991221527053 10.77495264554922 -14.26445471671254 -0.025170498528490348 0.005974066962129363 0.008930809494913733 0.04576041675618019 -0.025170498528490348 0.005974066962129363 0.008930809494913733 0.04576041675618019
773.0 -6.289285583332486 -0.47732293930162406 14.612103897036294 -21.50675627143829 -0.0010379331291597035 -0.0015804527063129222 0.0027448922034512173 0.0062449675540073414 -0.0010379331291597035 -0.0015804527063129222 0.0027448922034512173 0.0062449675540073414
774.0 -0.1307857018442205 0.01847947209765591 0.013077236488604394 -0.02398180640223688 0.11487935431130648 -0.18987768193591187 -0.05159425245716018 0.08281893379832209 0.11487935431130648 -0.18987768193591187 -0.05159425245716018 0.08281893379832209
775.0 -2.9351448215784637 5.467135345860832 1.680237531811237 -1.5771290246135161 -0.0007287271042049098 -0.0007124481433815101 0.002004937245556614 0.002122936328250984 -0.0007287271042049098 -0.0007124481433815101 0.002004937245556614 0.002122936328250984
776.0 -0.9537246549581059 0.9784815752597521 2.294817707830623 -2.982932642209213 0.004567546553884624 -0.022816017766791218 0.03147134555077361 -0.136914942575496 0.004567546553884624 -0.022816017766791218 0.03147134555077361 -0.136914942575496
777.0 -6.936564744937901 1.2023903958924818 -0.030603218117449815 -1.1784755720578208 -0.009967266717652471 0.06254892781382584 0.015490678767323927 -0.09721073745207395 -0.009967266717652471 0.06254892781382584 0.015490678767323927 -0.09721073745207395
778.0 -14.51765366598735 5.961413246898316 10.568196420323417 -4.553427031943342 0.0 0.0 0.0 0.0 0.0 0.0 0.0 0.0
779.0 -3.9760827025654537 1.0507266842654945 -0.09144510423063378 0.05636646277415915 -0.11344003248478812 -0.18415463140703947 -0.10544378461364853 -0.23854620878459348 -0.11344003248478812 -0.18415463140703947 -0.10544378461364853 -0.23854620878459348
780.0 0.0 0.0 0.0 0.0 -1.2223275732384682 1.2288350553280705 -0.5924636635602589 -0.8249406840470997 -1.2223275732384682 1.2288350553280705 -0.5924636635602589 -0.8249406840470997
781.0 -124.80896479670281 197.12082628383524 207.1381963899843 -327.1420342489739 -0.06623628851601818 -0.2464968526388179 0.10045413542671806 0.37383779755792595 -0.06623628851601818 -0.2464968526388179 0.10045413542671806 0.37383779755792595
782.0 -10.38004238484713 18.087164494213 6.315388972263945 -12.25971684323069 0.0004274291611419811 0.0008607224023190551 0.0006806703331830623 0.0013706790683147296 0.0004274291611419811 0.0008607224023190551 0.0006806703331830623 0.0013706790683147296
783.0 -1064.015980599249 -552.3157618981932 -495.556830653469 -526.0498640225541 0.00012067083015620162 0.003926629103990568 0.00044223376502212935 0.014390287779204246 0.00012067083015620162 0.003926629103990568 0.00044223376502212935 0.014390287779204246
784.0 -12.060057888833189 8.584952824121764 4.562134089722145 -7.311496289535783 -0.4352387824275888 -0.7120482312451903 -1.1066904546516763 -1.8105394385477698 -0.4352387824275888 -0.7120482312451903 -1.1066904546516763 -1.8105394385477698
785.0 -0.09164069169209914 0.08545866905251855 0.12062727131883254 -0.11248983249690203 -0.01107648459758798 0.10950901576369913 0.03141612235627146 -0.04082895667625973 -0.01107648459758798 0.10950901576369913 0.03141612235627146 -0.04082895667625973
786.0 -1.4053416888881756 -4.584159068095018 -4.259787796947226 -15.40876832361683 0.0050668667445694475 0.0015476783472665057 0.0021636536447580874 0.0008007757502375922 0.0050668667445694475 0.0015476783472665057 0.0021636536447580874 0.0008007757502375922
787.0 -0.2902158438582383 0.9046393024755194 0.2322277857339226 -0.8970009035284826 -0.0036567551088407904 -0.01358631315519408 -0.0005828888904038227 2.9263234659733343e-05 -0.0036567551088407904 -0.01358631315519408 -0.0005828888904038227 2.9263234659733343e-05
788.0 -0.8173202012289176 0.9880173172588613 0.1280619920607128 -0.9125073534867714 0.08590803692469932 -0.01948374709966398 0.007623581122987891 0.0021738204785158445 0.08590803692469932 -0.01948374709966398 0.007623581122987891 0.0021738204785158445
789.0 -0.007577720495466236 0.001296419767806718 -0.00022583618303968127 3.8636749950572706e-05 -0.18674934609506466 0.28303967282334846 0.28235379297620095 0.12526952463784652 -0.18674934609506466 0.28303967282334846 0.28235379297620095 0.12526952463784652
790.0 -0.13900007542138115 0.08277044069024536 0.0830964145024197 -0.07638714625778213 -0.002842250630289488 6.624851664822299e-05 -0.0014650483950271222 -0.00822298156818942 -0.002842250630289488 6.624851664822299e-05 -0.0014650483950271222 -0.00822298156818942
791.0 -7.712886670109243 8.217801291316281 12.676982521900074 -13.503670688294022 0.289572085619417 0.4200380824516064 0.30027080131039885 0.30015267589229405 0.289572085619417 0.4200380824516064 0.30027080131039885 0.30015267589229405
792.0 -6.825711476049737 7.071857828526046 -3.599841739461693 -18.630149949276834 0.0 0.0 0.0 0.0 0.0 0.0 0.0 0.0
793.0 -1.6491934549627754 0.22659873735511915 0.35956307474831806 -0.4352904956813096 0.005030267456091412 0.00583012967012618 0.004335737837295255 0.005479393287692893 0.005030267456091412 0.00583012967012618 0.004335737837295255 0.005479393287692893
794.0 -0.22230600215453467 0.0023767248573722394 -0.07182928903437238 -0.17034058780677347 -0.06896642170277947 -0.000526183311048832 -0.013643627396241217 -0.018653803996471832 -0.06896642170277947 -0.000526183311048832 -0.013643627396241217 -0.018653803996471832
795.0 -2.5932281143302753 2.5040570050511546 3.6387704488465262 -3.8426070722619547 0.02797971243160277 0.006216930313261953 -0.010214364003447607 -0.003676467207668752 0.02797971243160277 0.006216930313261953 -0.010214364003447607 -0.003676467207668752
796.0 -0.5324118161029892 2.5640226727859035 0.5144337813449006 -2.479554437844902 0.003710314014476565 0.00197212298208274 -0.0035846287447544043 -0.0014617335290376394 0.003710314014476565 0.00197212298208274 -0.0035846287447544043 -0.0014617335290376394
797.0 -1.615962253630327 2.736797942220106 1.879250323798553 -4.385897329428311 0.00012452033158877562 0.00011369637688577098 9.766879221544499e-05 8.917891293750992e-05 0.00012452033158877562 0.00011369637688577098 9.766879221544499e-05 8.917891293750992e-05
798.0 -0.03802541560765779 -0.05600146939323426 -0.055419566767514666 -0.08052070699286762 0.0003793170307886711 -9.981848891181843e-05 0.0005912333838304164 -0.00024113044548671207 0.0003793170307886711 -9.981848891181843e-05 0.0005912333838304164 -0.00024113044548671207
799.0 -3.213584586732117 1.495855878897494 6.211246711633054 -14.515687585243237 0.0 0.0 0.0 0.0 0.0 0.0 0.0 0.0
800.0 -2.9336956792362106 -0.6614604510802156 -1.4354415833262402 -4.927105895785403 0.0006674874609591647 0.00025911022274341557 0.0007377419359439881 0.00028638212480413904 0.0006674874609591647 0.00025911022274341557 0.0007377419359439881 0.00028638212480413904
801.0 -11.194513961313618 5.649563517925277 10.048945634438862 -7.3721522011030665 6.04118395317862e-05 0.0008985483595154032 0.0004021663119552696 0.0059817062791082815 6.04118395317862e-05 0.0008985483595154032 0.0004021663119552696 0.0059817062791082815
802.0 -0.09398380450677991 0.07293220507749343 0.09350143648881772 -0.07255788352929195 -0.8633643275100559 0.3663068398681785 0.260562871852024 0.037090170814162556 -0.8633643275100559 0.3663068398681785 0.260562871852024 0.037090170814162556
803.0 -0.9874526626724148 2.0870934355349697 -3.6287706725270277 -15.451045330554043 -0.022946455080191993 0.00805955099783615 0.0013583663465789604 -0.0023176977940296594 -0.022946455080191993 0.00805955099783615 0.0013583663465789604 -0.0023176977940296594
804.0 -0.41683264486216953 0.07149214637046991 0.025552901683875064 -0.009880019181605625 0.0016017995254284285 -0.004204916226100358 0.021176468162962325 -0.18476692366981534 0.0016017995254284285 -0.004204916226100358 0.021176468162962325 -0.18476692366981534
805.0 0.0 0.0 0.0 0.0 4.0158083020056 3.3051487479880257 2.595590877445833 1.1054294508796365 4.0158083020056 3.3051487479880257 2.595590877445833 1.1054294508796365
806.0 13.521410788127563 -51.35461076949573 174.40396343499364 -590.3613226668181 11.67330033505218 14.985998956553892 12.546443744965883 16.107219264322882 11.67330033505218 14.985998956553892 12.546443744965883 16.107219264322882
807.0 0.021663876307125914 -0.5868457214942444 0.029003748011757688 -0.26134462993420166 0.03640655016144722 -0.02451506291137431 -0.06103981539608277 0.056178655950098286 0.03640655016144722 -0.02451506291137431 -0.06103981539608277 0.056178655950098286
808.0 -0.5356936690984246 -0.0402281648628611 0.15403062678397234 -0.20666091073863685 0.002160312210187013 -0.009506007017227586 -0.00886795842551584 0.032903975379025986 0.002160312210187013 -0.009506007017227586 -0.00886795842551584 0.032903975379025986
809.0 -0.007513571404293312 0.3630733610859706 0.09413742577446466 -4.46958723124496 0.033741447354806366 -0.021279961012428496 -0.02792530512056859 0.01859121531618648 0.033741447354806366 -0.021279961012428496 -0.02792530512056859 0.01859121531618648
810.0 -244.62987292950007 11.210802827467244 -111.70200512373027 3.5594185342159665 -0.3742498317638081 -2.9486511756615323 -1.8420291581203698 -2.1520373189294557 -0.3742498317638081 -2.9486511756615323 -1.8420291581203698 -2.1520373189294557
811.0 -4.814295499118512 3.2558272564135193 2.854674618005451 -3.3786214667092875 -0.0021393716000854997 -0.005951013971015216 -0.002919243506162141 -0.012682698775742445 -0.0021393716000854997 -0.005951013971015216 -0.002919243506162141 -0.012682698775742445
812.0 -235.65540371965872 16.200736321081358 136.9004027449211 -16.053049145579067 -0.008208921035880688 -0.009800123317887306 -0.008482743383214463 -0.010126532947823896 -0.008208921035880688 -0.009800123317887306 -0.008482743383214463 -0.010126532947823896
813.0 -0.059279270653112795 0.07029290122363031 0.0263886436115262 -0.05116623511152866 -0.04257773362236217 0.038352381859461354 1.1540917639885835 1.118606736431319 -0.04257773362236217 0.038352381859461354 1.1540917639885835 1.118606736431319
814.0 -1.5921082243567934 -4.2396635134079395 -1.6408106943420215 -4.548411263520647 -0.1968717667686185 0.18877552722595903 0.19768681199911736 -0.17059200674564878 -0.1968717667686185 0.18877552722595903 0.19768681199911736 -0.17059200674564878
815.0 0.3169046568366847 -1.781779367527062 2.750527390784371 -15.354010492178638 0.001953954777482147 -0.001463985746054843 -0.0029335915341660275 0.0024462470081053934 0.001953954777482147 -0.001463985746054843 -0.0029335915341660275 0.0024462470081053934
816.0 -1.6764274512878194 -1.235595725706314 1.8777070196455359 -2.5843094628238408 -0.004181682793058006 -0.01120444099695076 -0.12634229141701497 -0.33852274781614816 -0.004181682793058006 -0.01120444099695076 -0.12634229141701497 -0.33852274781614816
817.0 -0.6806621272189479 -0.6307666149831729 0.06193413722581065 0.06401145366547498 -0.06788608355880296 0.11127647679014602 0.023028103291627085 0.0038887357634660308 -0.06788608355880296 0.11127647679014602 0.023028103291627085 0.0038887357634660308
818.0 -1.9350043216677086 -3.124134070135787 -2.3639761276968456 -4.141316448191891 0.008868251368803547 -0.0042178263914953275 -0.0005560787834547307 0.0002644764645324225 0.008868251368803547 -0.0042178263914953275 -0.0005560787834547307 0.0002644764645324225
819.0 -8.2812374989558 8.757820502679223 6.7213414485819625 -7.454278080315479 -0.004206015595256259 -0.013306243644235381 -9.804118924752387e-05 4.327389246355469e-06 -0.004206015595256259 -0.013306243644235381 -9.804118924752387e-05 4.327389246355469e-06
820.0 -4.767147984032622 -6.169065436738408 -3.158574405254767 -13.23676741331963 -0.00047826253347174293 -0.00020105182281983283 0.0012194211571967127 -0.0001041853837697742 -0.00047826253347174293 -0.00020105182281983283 0.0012194211571967127 -0.0001041853837697742
821.0 0.7849042266258551 1.8074602282837073 -1.7139604409797717 -4.136721106622671 0.0015911670970385136 0.0005133615254949432 0.0007382292767922318 0.00023817643565182128 0.0015911670970385136 0.0005133615254949432 0.0007382292767922318 0.00023817643565182128
822.0 -167.06788108891837 190.70259766217885 246.84330863574155 -280.89570505018975 0.002462828079756549 0.003877484262511669 0.026671089463110725 0.03250920578945184 0.002462828079756549 0.003877484262511669 0.026671089463110725 0.03250920578945184
823.0 -2.75471698627849 0.20422947266425592 -1.8269284052618717 -0.528528755114316 9.300066426778308 11.960558682592403 14.47457814412539 18.349270384712135 9.300066426778308 11.960558682592403 14.47457814412539 18.349270384712135
824.0 -7.491415140490917 7.838233847584546 7.2469480084603415 -8.782272549027901 0.001571496666317347 -8.124625763172169e-05 0.018814392656479346 -0.0009174921421344362 0.001571496666317347 -8.124625763172169e-05 0.018814392656479346 -0.0009174921421344362
825.0 -3.8017076902364995 6.976631153506444 1.8133164048700017 -3.4314518196853503 -0.0015553815753204902 0.011942300361993069 0.004965302785678484 -0.012180384970367041 -0.0015553815753204902 0.011942300361993069 0.004965302785678484 -0.012180384970367041
826.0 -13.179892395696436 24.175273708296395 22.85703588216761 -46.15774729156869 0.0 0.0 0.0 0.0 0.0 0.0 0.0 0.0
827.0 -18.371099579219266 14.345884438165356 17.371955758018608 -14.807819842653714 0.006988192519340258 0.002878829974740266 0.0023170536920561207 -0.003220918589754665 0.006988192519340258 0.002878829974740266 0.0023170536920561207 -0.003220918589754665
828.0 -2.4282582768705625 1.6041501431532788 -0.4266685506112583 0.2828486779448902 -0.03920728823864454 -0.013386159033017994 -0.006614524238583465 -0.0024904751958001866 -0.03920728823864454 -0.013386159033017994 -0.006614524238583465 -0.0024904751958001866
829.0 0.0 0.0 0.0 0.0 -0.006721437976227755 0.004543450343165355 0.002438045482746634 -0.0017398949801171297 -0.006721437976227755 0.004543450343165355 0.002438045482746634 -0.0017398949801171297
830.0 0.019222804641776652 0.19261790733852605 -0.07224496428261337 -1.0684009119975806 -5.617032626034055 -5.285425468394015 -6.345784590123163 -16.365421033281564 -5.617032626034055 -5.285425468394015 -6.345784590123163 -16.365421033281564
831.0 -2.1785583104374835 -2.4905315071734266 -3.8816337066242315 -5.363080733720381 -0.8983343178146405 0.3290628461709124 0.4517189019604855 -0.1858168565769207 -0.8983343178146405 0.3290628461709124 0.4517189019604855 -0.1858168565769207
832.0 -12.678858139880631 -4.950743955603149 -2.6142977211869587 -6.111329938257651 0.03268815998984764 0.10682269352986604 0.1238732378250843 0.016093919446631473 0.03268815998984764 0.10682269352986604 0.1238732378250843 0.016093919446631473
833.0 -19.026124203305336 34.833572272385425 23.90281932695064 -45.12457679530448 1.9250526450549235e-05 5.496291821579354e-05 2.7376918552323816e-05 7.816489275018676e-05 1.9250526450549235e-05 5.496291821579354e-05 2.7376918552323816e-05 7.816489275018676e-05
834.0 -6.134236893445584 4.266170598064873 3.49325390996965 -7.5007926564607885 0.0018020215902409503 0.002482172633562288 0.0010142192825262856 0.00152148168222199 0.0018020215902409503 0.002482172633562288 0.0010142192825262856 0.00152148168222199
835.0 -13.970483136505404 5.784557860054155 3.8040558060125074 -1.6449996629957113 0.00013930803086827697 -0.0008139926579557868 0.0011142815793874035 -0.006510873916338365 0.00013930803086827697 -0.0008139926579557868 0.0011142815793874035 -0.006510873916338365
836.0 -2.970732788133813 3.946852432735769 5.359139604314973 -8.163243896037166 -0.0010303024364321299 0.002664379388368031 0.0021477881872081404 0.002459211265004652 -0.0010303024364321299 0.002664379388368031 0.0021477881872081404 0.002459211265004652
837.0 -5.849011001261541 2.5814635003675206 3.949043736327546 -1.7809140025235748 0.00033638931512589216 0.0008544614485676172 -0.0017402126898108249 -0.007883372215371482 0.00033638931512589216 0.0008544614485676172 -0.0017402126898108249 -0.007883372215371482
838.0 -3.2169654208063756 6.044448365821249 4.061353765738915 -8.68052907573315 0.7529923857219197 -0.24186397506380847 -0.4645653194676293 0.14721449460097047 0.7529923857219197 -0.24186397506380847 -0.4645653194676293 0.14721449460097047
839.0 -0.5393059177834385 -1.3197331917601034 1.2878862431036542 -2.1884661986746314 0.13169042122682115 -0.012508886380510266 0.026438260688797205 -0.02620873161481989 0.13169042122682115 -0.012508886380510266 0.026438260688797205 -0.02620873161481989
840.0 -28.342967836517285 19.538122535271782 11.85183907892226 -9.161521441970084 0.025524376599113777 0.06934690081162664 0.049425979967164343 -0.18850947239436733 0.025524376599113777 0.06934690081162664 0.049425979967164343 -0.18850947239436733
841.0 0.15817003487497694 -0.5225916123884844 2.7773522993251003 -12.123685390159245 0.0010735344276569425 -2.3468884867796304e-05 0.001351386471875136 -2.9543098668531937e-05 0.0010735344276569425 -2.3468884867796304e-05 0.001351386471875136 -2.9543098668531937e-05
842.0 -1.245127868975488 1.0878579173650107 -0.4539001802771486 -2.0059293868133508 -0.02441103420831433 0.000965370617814579 -0.08405092282714142 0.003323918626515499 -0.02441103420831433 0.000965370617814579 -0.08405092282714142 0.003323918626515499
843.0 0.0009811031859116462 0.002979102005861255 -0.0022078868174649304 -0.007197151470627013 -0.03160321708598164 0.020268816783250695 0.04850206722130503 -0.019030490355947074 -0.03160321708598164 0.020268816783250695 0.04850206722130503 -0.019030490355947074
844.0 -0.5116025766215629 0.22790706459732515 0.030250925013731667 -0.015484401668387573 -0.0020564624093468236 -0.005503670550906559 -0.02777332185408138 -0.045405005385178 -0.0020564624093468236 -0.005503670550906559 -0.02777332185408138 -0.045405005385178
845.0 0.0 0.0 0.0 0.0 -2.3382523219284344 2.1633878316184565 4.257904025795138 -4.024525560055386 -2.3382523219284344 2.1633878316184565 4.257904025795138 -4.024525560055386
846.0 0.20650325981686019 -2.928572403394761 0.20605253693400857 -3.072562211165302 0.026385601552081327 -0.041793133823923266 -0.008469149020193573 0.07070222092563813 0.026385601552081327 -0.041793133823923266 -0.008469149020193573 0.07070222092563813
847.0 -13.702968198403067 12.844501725591783 20.970344836341233 -38.30851221262437 0.11109209896312686 0.08921203811802887 0.06614892970305879 0.053120616976503575 0.11109209896312686 0.08921203811802887 0.06614892970305879 0.053120616976503575
848.0 0.0 0.0 0.0 0.0 0.02988348093293606 0.05215530035892661 0.05319363888502925 -0.17965396931038535 0.02988348093293606 0.05215530035892661 0.05319363888502925 -0.17965396931038535
849.0 -1.1462461780334483 0.16134070153676094 0.3126369615458394 -2.133463276501022 0.0 0.0 0.0 0.0 0.0 0.0 0.0 0.0
850.0 -0.00019221387172388762 -0.756823733463696 0.022053950853543152 -1.6557174986909224 0.0020246490226761647 0.012852745635997085 -0.00811014521620252 0.00045329043664177825 0.0020246490226761647 0.012852745635997085 -0.00811014521620252 0.00045329043664177825
851.0 -2.8150254827034655 3.008835677693524 0.33447265130031834 -15.225185567461336 -0.0065809692986403415 0.008039723291248458 0.004272540000963483 -0.004755980335464371 -0.0065809692986403415 0.008039723291248458 0.004272540000963483 -0.004755980335464371
852.0 -3.866925246935291 -14.954514520464702 -13.856106593541174 -55.88366117271205 -0.04912674741885981 0.06126758554375999 0.1828365498900939 -0.15961216834446507 -0.04912674741885981 0.06126758554375999 0.1828365498900939 -0.15961216834446507
853.0 -6.608742836672565 5.852987079317917 7.409244179964819 -6.854213514100068 0.0 0.0 0.0 0.0 0.0 0.0 0.0 0.0
854.0 -1.8632820444457123 0.14317881961410164 0.060417518174052436 -0.02157601745981648 -0.08548351878725202 0.18255751905513645 0.08795107494914695 -0.17879165316930276 -0.08548351878725202 0.18255751905513645 0.08795107494914695 -0.17879165316930276
855.0 -73.08562581698453 77.18118286540975 -44.48152552667309 47.61889555373883 0.0017935165324719394 0.0006318234044167939 0.0003412018291822182 0.00012019922727448811 0.0017935165324719394 0.0006318234044167939 0.0003412018291822182 0.00012019922727448811
856.0 -5.114986534710597 9.411179077038007 -3.903153931679632 -6.304730165360814 -0.14498553168086473 1.2570599561960163 0.3565965361849257 -3.091117618391704 -0.14498553168086473 1.2570599561960163 0.3565965361849257 -3.091117618391704
857.0 -0.620894607057142 3.52086285273174 0.24229663394670536 -2.4704282479544375 -0.009908497791217446 -0.024804605793930044 -0.011119853554240135 -0.027837073763455754 -0.009908497791217446 -0.024804605793930044 -0.011119853554240135 -0.027837073763455754
858.0 -43.50733923758405 92.7251217583259 207.0855122781885 -441.4400398203327 3.0648860547150973 3.609148550695788 3.224725183401175 4.35651226237922 3.0648860547150973 3.609148550695788 3.224725183401175 4.35651226237922
859.0 -2.3932972457217843 2.15371076017892 5.675918496216893 -21.78025627510848 -0.0496070409366387 0.1031159611063923 -0.01680501387608856 0.034931838797892786 -0.0496070409366387 0.1031159611063923 -0.01680501387608856 0.034931838797892786
860.0 -0.23165310343806544 0.27524207108138227 0.45850190631817517 -0.35257669791665247 0.0019031100640745625 0.002731485027917112 -0.0021997512571568082 0.03140711925698547 0.0019031100640745625 0.002731485027917112 -0.0021997512571568082 0.03140711925698547
861.0 -0.551847287038402 1.4306445420676646 1.4645997032851172 -3.7679009506093406 -0.00023034694713178943 -0.000165146224175563 0.0005912536627018663 0.0011111066171485377 -0.00023034694713178943 -0.000165146224175563 0.0005912536627018663 0.0011111066171485377
862.0 -0.4394684331442219 2.0111961348887406 0.5540699609773092 -3.2751538555309176 -0.0008976945321991967 -0.001423099978662771 -0.0023794574523888787 -0.0037721137071292676 -0.0008976945321991967 -0.001423099978662771 -0.0023794574523888787 -0.0037721137071292676
863.0 -2.829428460402915 2.817390787296535 2.4892464551948827 -4.8314999868734105 0.0 0.0 0.0 0.0 0.0 0.0 0.0 0.0
864.0 -11.28089534423212 9.039031548404267 10.081173421814388 -8.08949321393031 0.0015597015579231724 0.0008528404174747452 0.0006364844096867264 0.00014407881181549104 0.0015597015579231724 0.0008528404174747452 0.0006364844096867264 0.00014407881181549104
865.0 -263.75353900781255 -23.8527729059781 155.4881035366491 14.043612564685432 8.507191957960073 13.32365081785649 4.921597809133759 8.482392577114803 8.507191957960073 13.32365081785649 4.921597809133759 8.482392577114803
866.0 -3.187281839238338 0.8738528526743774 1.315650782263086 -0.32165568753319784 -0.02537726160321649 0.024635080308884307 0.016569851870116222 -0.0149288128287295 -0.02537726160321649 0.024635080308884307 0.016569851870116222 -0.0149288128287295
867.0 -29.547437377893704 0.9306046489623698 3.508187383584778 -6.9017578595670965 -0.6302386668630808 0.1663754937647707 0.17104245022851106 -0.04515316753436692 -0.6302386668630808 0.1663754937647707 0.17104245022851106 -0.04515316753436692
868.0 64.36611541550211 -18.563106685564318 -20.144532515157884 -446.22421779707383 -0.02082343634276529 0.2548172664440668 1.1144280438868681 -0.06941065878196395 -0.02082343634276529 0.2548172664440668 1.1144280438868681 -0.06941065878196395
869.0 -289.4198384401782 -41.73136441358196 98.11688615719471 -336.24348302688907 0.16524488663107706 -0.008827799728824423 -0.11868470087761908 0.00592013060096664 0.16524488663107706 -0.008827799728824423 -0.11868470087761908 0.00592013060096664
870.0 0.0 0.0 0.0 0.0 -0.2358983009035336 0.09311324314802566 0.1957179254997632 -0.06204403420358893 -0.2358983009035336 0.09311324314802566 0.1957179254997632 -0.06204403420358893
871.0 -0.22004452487133466 0.07407887242432046 0.07727448832235383 -0.11720421289739807 0.0020613082233762086 0.0097053849966684 -0.004636439418683264 -0.036660190245473616 0.0020613082233762086 0.0097053849966684 -0.004636439418683264 -0.036660190245473616
872.0 -10.59069381959235 9.265985509334548 7.106543685924445 -8.577317476674647 0.022052717985539202 0.011143575256484553 0.007805514296041347 0.003944245604126428 0.022052717985539202 0.011143575256484553 0.007805514296041347 0.003944245604126428
873.0 -6.359061506561233 4.788429288393281 6.212294952455718 -11.507696431133564 0.0012614599096356157 0.0006900394295728337 0.0008188088391841158 0.0004479019745328332 0.0012614599096356157 0.0006900394295728337 0.0008188088391841158 0.0004479019745328332
874.0 -0.7681164479262097 -3.012681949090305 2.768910292399252 -6.06311508950676 0.0 0.0 0.0 0.0 0.0 0.0 0.0 0.0
875.0 -14.206081018089181 3.8183679777011656 3.899595893706998 -1.4525899085085334 -0.00012968126712631684 0.0007869750734685636 -0.020140648241666167 0.038179913233250914 -0.00012968126712631684 0.0007869750734685636 -0.020140648241666167 0.038179913233250914
876.0 -42.24684638110063 72.8929005379429 77.08274155749913 -147.78511592448402 -0.0017662237767786897 -6.771373476971257e-05 0.0003993371057893466 1.5309841946778804e-05 -0.0017662237767786897 -6.771373476971257e-05 0.0003993371057893466 1.5309841946778804e-05
877.0 0.0 0.0 0.0 0.0 2.4524987917843055 -5.516129234878893 -3.6258674750295343 8.580315825181158 2.4524987917843055 -5.516129234878893 -3.6258674750295343 8.580315825181158
878.0 -12.669524225479607 14.80757068872751 18.14500493014777 -30.459656626794295 0.0006841118125398282 0.0026243285695733524 -0.0013358015608220615 -0.006235484387224929 0.0006841118125398282 0.0026243285695733524 -0.0013358015608220615 -0.006235484387224929
879.0 -1.6565586916760764 2.5163895295862537 2.729050311651695 -4.921153675415749 4.038724929093778e-06 7.580117031786897e-06 0.0001838525474267812 0.0003450652992106248 4.038724929093778e-06 7.580117031786897e-06 0.0001838525474267812 0.0003450652992106248
880.0 -0.9823919127669377 2.4894764661220914 0.622919872696578 -1.7111012792820517 0.0 0.0 0.0 0.0 0.0 0.0 0.0 0.0
881.0 -0.044189990647584124 -0.0616165044427874 -0.07096484201865608 -0.09597474768988254 0.18029390108999752 0.020320421952689585 0.029422150828517558 -0.010280135894206392 0.18029390108999752 0.020320421952689585 0.029422150828517558 -0.010280135894206392
882.0 -0.43134916604450313 0.23173692422368533 1.8371446681702368 -1.4134889185969013 -0.0010854543323855707 -0.004178717744738665 -0.0007820135691456159 -0.006690406029792529 -0.0010854543323855707 -0.004178717744738665 -0.0007820135691456159 -0.006690406029792529
883.0 -0.0006311491572309483 0.00041350363313816344 0.0017386921165715593 -0.0011391213928975347 -0.0015576912176589696 0.0005038030790073442 0.006411111953514398 0.0035100954326125052 -0.0015576912176589696 0.0005038030790073442 0.006411111953514398 0.0035100954326125052
884.0 -12.702257194080993 11.246747925029833 7.350584331482718 -15.502062010374637 -0.009771335488874724 -0.004705777015233552 0.03715457243797823 0.05067481643345227 -0.009771335488874724 -0.004705777015233552 0.03715457243797823 0.05067481643345227
885.0 -12.974681856123503 12.241039874972433 14.838226770539514 -17.690364983750545 0.00020453309057990337 8.54197622157769e-05 5.632790424946196e-05 2.3524389982375054e-05 0.00020453309057990337 8.54197622157769e-05 5.632790424946196e-05 2.3524389982375054e-05
886.0 -114.83389455046087 86.20133029154144 -122.80032219871917 -53.93503124648788 -0.011193965076963021 -0.10316294477595991 0.03657867229701212 0.30268323800034513 -0.011193965076963021 -0.10316294477595991 0.03657867229701212 0.30268323800034513
887.0 -164.14042934992287 -12.066523469320758 -57.22305709678704 -4.309095736695302 -1.1197618715687074 1.5134520848944055 1.6335047987671443 -2.207818739100064 -1.1197618715687074 1.5134520848944055 1.6335047987671443 -2.207818739100064
888.0 -0.05958428073685189 0.3110639679330991 -0.10335971242538225 -0.47372662530737314 0.0 0.0 0.0 0.0 0.0 0.0 0.0 0.0
889.0 0.6989350014172455 0.368593394086358 -0.8604275810954891 -16.156723843271763 0.0 0.0 0.0 0.0 0.0 0.0 0.0 0.0
890.0 -2.581629123683308 8.77570248306428 3.878945664209551 -16.05779681303539 -0.42552801186532013 0.37654452676487815 0.39369074961103534 -0.3286241304402962 -0.42552801186532013 0.37654452676487815 0.39369074961103534 -0.3286241304402962
891.0 -14.414157528743559 4.034764476548447 8.944567611103148 -6.302748216127716 0.002301656295573276 0.0016097216098145588 0.0013528419126882913 0.0009718681005111613 0.002301656295573276 0.0016097216098145588 0.0013528419126882913 0.0009718681005111613
892.0 -0.06742960994242901 -0.039014121570937484 -0.036861110829526506 -0.019357185511040723 -0.09634105015486831 0.11361502136901512 0.12635337349743356 -0.14600508498454362 -0.09634105015486831 0.11361502136901512 0.12635337349743356 -0.14600508498454362
893.0 -7.9587584594192196 11.528736996928679 8.041119606557025 -11.620924414140283 7.117619523416281e-07 3.114527870057632e-05 1.016504372941916e-05 0.0004448019719440533 7.117619523416281e-07 3.114527870057632e-05 1.016504372941916e-05 0.0004448019719440533
894.0 -1105.239897212961 -571.7822740605218 -749.7111845074915 -506.1430281137885 -0.0018433422425395913 0.0011465354039649545 0.002782914392226541 -0.0017309373176928177 -0.0018433422425395913 0.0011465354039649545 0.002782914392226541 -0.0017309373176928177
895.0 -1.1685909507394348 -0.03467268739585397 0.11380962914866927 -0.04768162042361107 0.0035267165714252197 -0.006289721219604277 0.00942646096408639 -0.027151087635375 0.0035267165714252197 -0.006289721219604277 0.00942646096408639 -0.027151087635375
896.0 0.0 0.0 0.0 0.0 -0.02584371855824006 0.14235916446897828 0.10958949372845354 -0.021128488161700987 -0.02584371855824006 0.14235916446897828 0.10958949372845354 -0.021128488161700987
897.0 0.00379160137689662 0.4881509884384224 -0.05254377536054877 -10.749129992974428 0.027353539409483835 0.0006093422767937117 -0.0019308324751253112 -7.533136677775747e-05 0.027353539409483835 0.0006093422767937117 -0.0019308324751253112 -7.533136677775747e-05
898.0 -0.5227925469958108 0.5465953690635289 0.6048984267891608 -0.7129543154691773 0.0030788612079403754 0.00800749020224946 0.03295634108851083 0.020797394431337497 0.0030788612079403754 0.00800749020224946 0.03295634108851083 0.020797394431337497
899.0 -2.9654102691747166 2.801350485568409 3.2358546150655005 -3.0551179781451365 -0.022625614314265817 -0.0022609128251250958 -0.0003175039296437676 0.009001429148177116 -0.022625614314265817 -0.0022609128251250958 -0.0003175039296437676 0.009001429148177116
900.0 -1.488795859057371 -0.9295994371736644 -0.47091068617870957 -0.727808377132556 0.00025900976644734915 -0.004232037164523083 -0.000990834759409998 0.01154036437986879 0.00025900976644734915 -0.004232037164523083 -0.000990834759409998 0.01154036437986879
901.0 -399.26682604208554 43.09244642004243 112.09703931062364 -109.17223309602 -0.00024743195722946404 0.00010010701463086212 0.0012868835635062293 -0.0005206525186262139 -0.00024743195722946404 0.00010010701463086212 0.0012868835635062293 -0.0005206525186262139
902.0 -2.5106000167993243 1.5035643948135238 -1.549812715944305 -4.139744168833515 -0.009912495093289803 0.006047221632803286 0.009318903180963041 -0.011926034139734518 -0.009912495093289803 0.006047221632803286 0.009318903180963041 -0.011926034139734518
903.0 0.0 0.0 0.0 0.0 0.007544925918180987 0.06722450223317906 0.02806171754813157 0.036310573242537704 0.007544925918180987 0.06722450223317906 0.02806171754813157 0.036310573242537704
904.0 -4.795492490670752 2.842336909654228 1.1145915924957144 -0.8048531140937776 -0.0008435388131484314 0.0009089868903607753 -0.006735722934415131 0.008118490816487542 -0.0008435388131484314 0.0009089868903607753 -0.006735722934415131 0.008118490816487542
905.0 -19.63639317228453 7.1345424113787566 17.18890261226886 -6.3482238682882635 -0.0603219910704196 0.13106167432137972 0.10757888583429383 -0.2328687004132006 -0.0603219910704196 0.13106167432137972 0.10757888583429383 -0.2328687004132006
906.0 -480.4136425033287 204.6151753210141 51.349658731133 -181.1597650634508 0.00532881221701878 -0.002812241020614001 -0.006060213676834574 0.0031965878936921323 0.00532881221701878 -0.002812241020614001 -0.006060213676834574 0.0031965878936921323
907.0 -20.45325083023884 15.880651819642882 9.916049903083552 -7.518634906575759 -0.007085425189039736 0.013116077597008193 0.03476322728469319 0.028367786132478184 -0.007085425189039736 0.013116077597008193 0.03476322728469319 0.028367786132478184
908.0 -10.23797605687533 -2.0916972986316744 2.347266644468255 0.47970201932149725 0.0005326126392534913 -0.0017885036544623102 0.002082703973794846 -0.0069936824509386425 0.0005326126392534913 -0.0017885036544623102 0.002082703973794846 -0.0069936824509386425
909.0 -11.62994502664493 10.01322131915842 12.45504039888003 -10.88587317107164 -1.1998861221207013 0.9752304043187638 1.0961605809460517 -0.911299051255232 -1.1998861221207013 0.9752304043187638 1.0961605809460517 -0.911299051255232
910.0 -0.5758501802614957 1.4207064583949507 0.6574146699958427 -2.235255673790853 0.0005995128271705809 0.0001361895083482201 0.00040717803003810456 9.249739656580853e-05 0.0005995128271705809 0.0001361895083482201 0.00040717803003810456 9.249739656580853e-05
911.0 -9.83909537035514 3.7470119343859185 1.7078913265450035 -0.7349284905646984 0.0011690073697317748 0.0009823895826500493 0.00017913934313189855 0.00031460472116097313 0.0011690073697317748 0.0009823895826500493 0.00017913934313189855 0.00031460472116097313
912.0 -34.05599464742642 6.125379795366158 -4.139628269767136 -3.14199848158734 -0.008117044283832716 0.022857554934630046 -0.0005268849116608248 -0.0011788806062219886 -0.008117044283832716 0.022857554934630046 -0.0005268849116608248 -0.0011788806062219886
913.0 -0.0021479673597820177 0.0027194147748041526 0.0013197640274219403 -0.0016708753878785566 -2.5390656640584988 1.8078855914629222 1.6824067277747403 -2.0934654932211147 -2.5390656640584988 1.8078855914629222 1.6824067277747403 -2.0934654932211147
914.0 -2.266668329096829 5.04119673452993 3.28635197875808 -7.446096079545984 0.0036410137685480093 0.004901132206731277 -0.012141076161694946 -0.016342981153897238 0.0036410137685480093 0.004901132206731277 -0.012141076161694946 -0.016342981153897238
915.0 -0.4892721126258584 0.42052053502008446 -3.2550671450771453 -8.426409912768438 0.0146165908209104 -0.0582425641386376 -0.046415091508822885 0.14265317726751697 0.0146165908209104 -0.0582425641386376 -0.046415091508822885 0.14265317726751697
916.0 -25.154741718819388 0.7127566594687422 6.950735246202485 -1.0149878611028202 8.385451389859591e-06 1.8384782045529676e-05 8.429073040412711e-05 0.00018480420849047779 8.385451389859591e-06 1.8384782045529676e-05 8.429073040412711e-05 0.00018480420849047779
917.0 0.0 0.0 0.0 0.0 0.004279788800560958 -0.011537101268353925 -0.005532814570558888 0.008915595780217687 0.004279788800560958 -0.011537101268353925 -0.005532814570558888 0.008915595780217687
918.0 -8.917434905921482 -107.2384595414951 -2.2445759134566075 -577.0826854635839 -0.0010207419847137263 0.00032316550033456733 0.0006525172165956816 -0.0002972176878513929 -0.0010207419847137263 0.00032316550033456733 0.0006525172165956816 -0.0002972176878513929
919.0 0.057691001790605344 0.39778630767966855 -0.6578532015037942 -4.531551493185439 -0.5472671902639703 0.28484378892012835 0.45787045890604916 -0.22859127008491367 -0.5472671902639703 0.28484378892012835 0.45787045890604916 -0.22859127008491367
920.0 -2.3353364228100517 4.653914332199664 9.771403039034158 -13.974871333681866 0.0032951977391060933 6.441449098866873e-05 0.0009404387090584803 0.00015161652111785626 0.0032951977391060933 6.441449098866873e-05 0.0009404387090584803 0.00015161652111785626
921.0 -1.1847014816845507 -0.015572039078801283 -0.1740953225712035 -0.019264814851436465 -0.027790762604536858 0.03756533407343082 -0.025321601814628617 0.03362100082687441 -0.027790762604536858 0.03756533407343082 -0.025321601814628617 0.03362100082687441
922.0 -2.506649540446289 0.019465655146035488 -0.7473453551167055 -0.47547113577054134 0.7878431401468875 1.8493854096850664 2.9489994308928043 6.02043338025698 0.7878431401468875 1.8493854096850664 2.9489994308928043 6.02043338025698
923.0 -2.6692821254746253 1.2270013176597498 1.6330919648055877 -5.790836988602538 0.036772097284339604 0.0038014789638264133 0.0055735837554544195 0.0012262025749729965 0.036772097284339604 0.0038014789638264133 0.0055735837554544195 0.0012262025749729965
924.0 -2.8611445595865037 2.349214734600398 4.724206239471075 -3.941324264740865 0.026317211017149192 -0.025749403749881498 -0.0066355376362171505 0.020684604086926524 0.026317211017149192 -0.025749403749881498 -0.0066355376362171505 0.020684604086926524
925.0 -2.5352904784985855 5.5463491505228175 2.3896907209433893 -10.007254061655818 0.0 0.0 0.0 0.0 0.0 0.0 0.0 0.0
926.0 -1.6996956248819433 -7.876901230253025 -1.6595156187240132 -5.653070225027332 0.02732129384769501 -0.04110672388502038 -0.061904153704718336 0.10830689924234325 0.02732129384769501 -0.04110672388502038 -0.061904153704718336 0.10830689924234325
927.0 -0.024226391908142686 0.5335993117184927 -0.41472204162806475 -2.005499073761011 -0.028361220718767923 -0.006811911075324752 0.0006740359779288912 0.0001697802248738801 -0.028361220718767923 -0.006811911075324752 0.0006740359779288912 0.0001697802248738801
928.0 -16.878223700933013 4.581250999042791 2.420448439790628 -5.255987899266273 0.006072672280906291 0.024125304623149085 -0.06194244517951804 0.39021538829362995 0.006072672280906291 0.024125304623149085 -0.06194244517951804 0.39021538829362995
929.0 -8.381458484527702 10.362315480035763 14.759731529671306 -18.898772092213566 0.046349676459304504 0.15376261155217064 0.045966351950331164 0.1533120659599538 0.046349676459304504 0.15376261155217064 0.045966351950331164 0.1533120659599538
930.0 -8.187499927242342 3.4413472095531703 11.60238799642894 -21.794287822166172 4.044058566215322e-05 0.00011564257325317671 3.460433736836263e-05 9.895342892483344e-05 4.044058566215322e-05 0.00011564257325317671 3.460433736836263e-05 9.895342892483344e-05
931.0 -2.15474098538481 1.45641312512695 3.57356920553706 -11.838627516551465 -0.004347611256154714 -0.00012154046741349519 0.0008704022264319022 0.0001995563167103411 -0.004347611256154714 -0.00012154046741349519 0.0008704022264319022 0.0001995563167103411
932.0 29.34859602334097 -106.3313225524304 89.2750396543812 -299.25619508333074 -0.10301116209294442 0.07034791058269074 0.06413303927004486 -0.043858862167155746 -0.10301116209294442 0.07034791058269074 0.06413303927004486 -0.043858862167155746
933.0 0.0 0.0 0.0 0.0 -0.006349636770135454 0.11731802797228576 0.052866924236616084 0.1325332593522493 -0.006349636770135454 0.11731802797228576 0.052866924236616084 0.1325332593522493
934.0 -7.4148537668595935 5.549924478712271 10.514398816808603 -8.305214929158407 0.00026711754790768313 0.0001356850604344329 8.344235070582794e-05 4.238538608562061e-05 0.00026711754790768313 0.0001356850604344329 8.344235070582794e-05 4.238538608562061e-05
935.0 -503.725459259195 242.7673182072652 454.18489032990453 -219.01743480719543 0.002335048552164098 0.003756807287746134 0.0033859580143701558 0.005447591970881765 0.002335048552164098 0.003756807287746134 0.0033859580143701558 0.005447591970881765
936.0 -8.5001697185434 13.399475307138962 9.43472724766782 -15.304674467376552 0.008945296670265392 0.004257929290184234 0.004557973792467532 0.003771318496207385 0.008945296670265392 0.004257929290184234 0.004557973792467532 0.003771318496207385
937.0 -23.836224130529782 7.851686102792414 1.1112486236705714 -8.49464298214596 -0.00023854068690888814 -8.938901377407168e-05 -0.00020528571161868996 -0.00023865531443378044 -0.00023854068690888814 -8.938901377407168e-05 -0.00020528571161868996 -0.00023865531443378044
938.0 0.2960465326495771 -2.48761863305975 2.5669069556542095 -16.40292462302428 0.0009728403519352917 0.0003956183584596315 0.00048048307156727747 0.00034036859818753934 0.0009728403519352917 0.0003956183584596315 0.00048048307156727747 0.00034036859818753934
939.0 -0.6708317587429005 3.14645623225658 0.9273993172619976 -17.09903058363691 0.0005229941802022163 0.0079931584427416 0.0020341710466111507 0.03108916330371726 0.0005229941802022163 0.0079931584427416 0.0020341710466111507 0.03108916330371726
940.0 -9.24115854186295 6.115751937311783 4.881167439098362 -4.954500402362391 0.0 0.0 0.0 0.0 0.0 0.0 0.0 0.0
941.0 -5.418485328845462 17.560643744711136 8.368898476303999 -22.85898459800397 0.001006393672480056 0.0007740195788750505 0.0008078770049932397 0.0006163804245754127 0.001006393672480056 0.0007740195788750505 0.0008078770049932397 0.0006163804245754127
942.0 -2.8771676762334533 0.06129910273853628 -1.6557087473654286 -0.06715773860586008 0.1632427139475924 0.21233301006071523 0.1706393272493787 0.2222412066674034 0.1632427139475924 0.21233301006071523 0.1706393272493787 0.2222412066674034
943.0 -31.75171263249176 30.81522289485894 31.67669019788945 -30.72837253900346 -0.0018304262082920037 -0.0002508357940646332 -0.00023668419398641417 -3.2434450223769366e-05 -0.0018304262082920037 -0.0002508357940646332 -0.00023668419398641417 -3.2434450223769366e-05
944.0 -1.3734748853702166 4.046782569693234 1.5526273029624669 -22.625339534048482 0.35828217142572283 -0.16844523350834245 -0.16671924996480392 0.07740492538990268 0.35828217142572283 -0.16844523350834245 -0.16671924996480392 0.07740492538990268
945.0 -13.485170745640394 10.574459940830463 9.69726190310377 -7.6005048237805735 -0.0013412704819000462 0.055776709663108576 0.007948639125006176 -0.07779255446603497 -0.0013412704819000462 0.055776709663108576 0.007948639125006176 -0.07779255446603497
946.0 0.0 0.0 0.0 0.0 0.44107419067172754 -0.45518396710476594 -0.4856917087844092 0.4825879812487208 0.44107419067172754 -0.45518396710476594 -0.4856917087844092 0.4825879812487208
947.0 -10.047766475775987 13.554087993749626 11.322023147699973 -22.746641835874257 0.0333775735678587 0.01956185491261042 0.01777662070424574 0.010614477400098047 0.0333775735678587 0.01956185491261042 0.01777662070424574 0.010614477400098047
948.0 -3.3532861810079013 17.862451715383163 3.0053426858404855 -16.184707768885332 -0.18645631634200208 -0.48086363008461114 -0.5254480851991588 0.3128692238328244 -0.18645631634200208 -0.48086363008461114 -0.5254480851991588 0.3128692238328244
949.0 0.417241691425793 2.9960789561426036 -4.491867168077988 -32.33550664769432 0.12431416667961748 0.16147161911871508 0.2090865018727731 0.26292989800463273 0.12431416667961748 0.16147161911871508 0.2090865018727731 0.26292989800463273
950.0 -5.734653311985316 -0.1595073745423499 -1.2964320169365235 -13.271998517907987 -0.01731721661724983 0.0422613699850668 0.08095924715203956 -0.1015074721843778 -0.01731721661724983 0.0422613699850668 0.08095924715203956 -0.1015074721843778
951.0 -0.09972118816525116 1.566150419754049 0.2851060145657545 -4.461885955688571 -0.07722500169538526 0.03735189488965781 0.08106294519880748 -0.051905846512505814 -0.07722500169538526 0.03735189488965781 0.08106294519880748 -0.051905846512505814
952.0 -0.7739653624488005 0.319187706619249 -0.012929364479253119 0.004918224891135116 -0.013239685985539113 0.06854118385301848 -3.696755564332486e-05 -0.00046914033124923057 -0.013239685985539113 0.06854118385301848 -3.696755564332486e-05 -0.00046914033124923057
953.0 -0.48600609583686355 1.029363793289352 1.1383872456318864 -2.379369966261805 0.0011100155805127594 0.00027369198813119054 0.000467840452706697 0.0004696958737687391 0.0011100155805127594 0.00027369198813119054 0.000467840452706697 0.0004696958737687391
954.0 -1230.8698770617373 -136.2897289367392 -213.3443041967756 -352.7227316171262 0.007278388755159213 -0.0027035029167993122 -0.0016934368461832751 0.000629014416113277 0.007278388755159213 -0.0027035029167993122 -0.0016934368461832751 0.000629014416113277
955.0 -0.1757487198424805 0.08923839982692017 0.09049217259384458 -0.18207169840027207 -0.00035098013619213285 8.906955018681287e-05 0.00021294680654852362 -4.97221417373358e-05 -0.00035098013619213285 8.906955018681287e-05 0.00021294680654852362 -4.97221417373358e-05
956.0 -4.990425436998859 4.2508157887442986 5.601590075425761 -30.091130421328987 0.0012579039949780976 3.46764827106445e-05 0.0003170243931099145 8.739371947634151e-06 0.0012579039949780976 3.46764827106445e-05 0.0003170243931099145 8.739371947634151e-06
957.0 -0.7297423993096323 4.683988008514183 1.5298412171144387 -9.628912473289763 0.0879427463953685 0.023492562969933344 0.011202797431371956 0.0045389506978546984 0.0879427463953685 0.023492562969933344 0.011202797431371956 0.0045389506978546984
958.0 1.4069809562514775 8.615264554915512 -9.24695464929423 -54.65518539674111 -4.971005269491945 3.714612232279062 1.610400041714768 -2.1478049014211265 -4.971005269491945 3.714612232279062 1.610400041714768 -2.1478049014211265
959.0 -0.0727535138140865 0.097067245547281 0.09416409644561098 -0.13209953896260693 -0.7840167161744523 0.08058858738057816 0.08872474302186759 0.03591956822359726 -0.7840167161744523 0.08058858738057816 0.08872474302186759 0.03591956822359726
960.0 -122.22362264271081 163.53494635438335 156.9307566925402 -222.14607012474556 -41.94374846938081 -4.829475084550069 -6.604231624251056 -2.4489817952623287 -41.94374846938081 -4.829475084550069 -6.604231624251056 -2.4489817952623287
961.0 -0.28879816500281585 1.4114377098281274 0.4417088730082759 -6.368645514609404 -0.017574510500765757 0.02112759345095411 0.01341671974186705 -0.008240690912255478 -0.017574510500765757 0.02112759345095411 0.01341671974186705 -0.008240690912255478
962.0 -0.3734172029571717 -0.32750580925192946 -0.03474869711293479 -0.3354728391832901 -0.0009884404489299515 -0.001540237806825194 -0.0013333752148071336 -0.0021284183692323994 -0.0009884404489299515 -0.001540237806825194 -0.0013333752148071336 -0.0021284183692323994
963.0 -10.859061643062459 45.039694067766284 24.333918424754685 -109.92011652227345 6.116025414185437 0.3702360112444255 2.0179757574804236 0.1548298832373574 6.116025414185437 0.3702360112444255 2.0179757574804236 0.1548298832373574
964.0 -446.59814368530664 161.4788473406827 265.51934088763244 -311.4637798509805 0.0005327739414900555 0.0012372300682991218 -0.0003432106452534884 -0.0007970182041568284 0.0005327739414900555 0.0012372300682991218 -0.0003432106452534884 -0.0007970182041568284
965.0 -1.7315715491643338 -4.260826329969209 -1.2848933337078643 -10.03011859361734 0.24938279205724406 -0.3965388115691292 -0.3242495674023341 0.29008707761845864 0.24938279205724406 -0.3965388115691292 -0.3242495674023341 0.29008707761845864
966.0 -7.207939079400578 3.9758917603199446 3.4581751772963525 -3.1433917687608397 -0.03376497261149342 -0.07796390172702347 0.027164797487977198 0.06400737064283554 -0.03376497261149342 -0.07796390172702347 0.027164797487977198 0.06400737064283554
967.0 -0.13489597104681622 0.12175625024162741 0.10807835296762534 -0.25216732822419513 0.05553825493670553 0.016899446104322747 0.11552178013397628 -0.001866291091511089 0.05553825493670553 0.016899446104322747 0.11552178013397628 -0.001866291091511089
968.0 3.3181218404601793 64.08259426647113 -33.31239524091937 -603.0145537978995 -7.452303843288808 8.529303355190034 5.8314537590758535 -6.37511475202207 -7.452303843288808 8.529303355190034 5.8314537590758535 -6.37511475202207
969.0 -10.923784159874645 8.529367543199275 5.111470077748837 -10.82633852088153 0.002611692521139375 -9.54561690891692e-05 -0.00018112468917022174 9.048520591096905e-06 0.002611692521139375 -9.54561690891692e-05 -0.00018112468917022174 9.048520591096905e-06
970.0 -475.95694850250885 189.80073778523433 471.34233962480903 -347.0200475804729 -7.00138762800687e-05 -3.4564920303547e-05 -5.6138572025073844e-05 -2.7714866982075727e-05 -7.00138762800687e-05 -3.4564920303547e-05 -5.6138572025073844e-05 -2.7714866982075727e-05
971.0 -0.32917744426547246 0.33981769133070944 1.7642551686102796 -1.274293664645247 0.0018918549382854388 0.0010673739226165393 0.0007521557897335344 0.0004838166187392946 0.0018918549382854388 0.0010673739226165393 0.0007521557897335344 0.0004838166187392946
972.0 0.0 0.0 0.0 0.0 -0.14681199424374616 0.1723469321491954 0.16428890201828109 -0.18021761926406893 -0.14681199424374616 0.1723469321491954 0.16428890201828109 -0.18021761926406893
973.0 -1.1915791866221086 2.652669597483147 3.832306833661816 -10.083291369225678 0.0034283465225126287 0.007003474696043247 0.005148783745799801 0.010518008154169848 0.0034283465225126287 0.007003474696043247 0.005148783745799801 0.010518008154169848
974.0 -0.6663683421522298 -0.749925276871736 -5.514563067566839 -8.198789849157215 -0.0013721426852802024 -0.03920214903693825 -0.004104486853724449 -0.11726528668336092 -0.0013721426852802024 -0.03920214903693825 -0.004104486853724449 -0.11726528668336092
975.0 -3.194075858174354 3.5825752386742495 2.1355499479059894 -2.8624648945511706 8.87762892993276e-05 0.0011116626144025783 0.0011220175653612234 0.0006282388813811796 8.87762892993276e-05 0.0011116626144025783 0.0011220175653612234 0.0006282388813811796
976.0 -0.4969594734527781 0.46849949982449535 0.30443012377522777 -0.2865688600088525 0.027731967250372462 0.00628390002806343 0.0019031857251501643 0.022104827396690188 0.027731967250372462 0.00628390002806343 0.0019031857251501643 0.022104827396690188
977.0 -4.417706770610667 1.3146652382650934 4.210636817468779 -24.05314562100331 -7.118581073500037e-06 -1.271121391285554e-05 1.1294998932653979e-05 2.0168787304103602e-05 -7.118581073500037e-06 -1.271121391285554e-05 1.1294998932653979e-05 2.0168787304103602e-05
978.0 -0.5876994544670442 -4.801033056088278 -0.874835085545791 -5.3956255192844464 -0.051647877384201894 0.03602333060232713 -0.036948496489193274 0.025770815214494418 -0.051647877384201894 0.03602333060232713 -0.036948496489193274 0.025770815214494418
979.0 -0.35493760486413106 0.8695655038633674 0.10512026240496754 -0.2782477422881886 -0.014780764051753879 -0.0005995396539756651 0.005123503605051296 0.00025573850719789814 -0.014780764051753879 -0.0005995396539756651 0.005123503605051296 0.00025573850719789814
980.0 -23.869976973137955 13.908230901942728 11.097501880110702 -8.846175524560937 0.13311864424155012 0.014190383766322971 0.09672955006816852 -0.08547550679920976 0.13311864424155012 0.014190383766322971 0.09672955006816852 -0.08547550679920976
981.0 -5.632897192456706 -0.09299688363616009 1.3522150589343962 -0.801985956115963 -0.06136427149265736 0.05069511872446938 0.03705655124703611 -0.02992710907717286 -0.06136427149265736 0.05069511872446938 0.03705655124703611 -0.02992710907717286
982.0 -4.504218400734371 5.920416956422787 2.1808365364127127 -2.86712532736825 -0.031768280072339394 -0.00235840141423273 -0.009475156318231315 0.005116607901551017 -0.031768280072339394 -0.00235840141423273 -0.009475156318231315 0.005116607901551017
983.0 -7.314445311889241 6.147998989442872 4.558834181033676 -4.252249017847316 0.009836682211416346 0.027276806736880953 0.025298012385802968 -0.04575965359297695 0.009836682211416346 0.027276806736880953 0.025298012385802968 -0.04575965359297695
984.0 -8.282466067447869 3.320985308438419 5.0008911038037995 -3.0462133621126264 0.022234089412596456 -0.05954898582242111 0.0208088866337341 -0.055444559213720046 0.022234089412596456 -0.05954898582242111 0.0208088866337341 -0.055444559213720046
985.0 -0.5047941629045415 0.13667008156391874 0.1338617101300224 -0.3023968018402363 -0.0025849719925971053 0.012183140478992528 0.006093834394755388 -0.029195643090582157 -0.0025849719925971053 0.012183140478992528 0.006093834394755388 -0.029195643090582157
986.0 -1.1415737830568045 0.9756527018626333 -0.4418651462566858 -2.2433739962510617 0.0077389911882370654 0.010677674662723177 0.0036098554657234836 0.004980605521432167 0.0077389911882370654 0.010677674662723177 0.0036098554657234836 0.004980605521432167
987.0 -12.302687036697021 15.638465770677001 12.566424847961782 -13.612485897823476 0.07531798187888358 0.15198159919104326 0.036534106846394146 -0.022744816514046383 0.07531798187888358 0.15198159919104326 0.036534106846394146 -0.022744816514046383
988.0 -0.9528956617072825 1.1162625676226714 0.9705270854778748 -1.2286516196026598 0.000583944125921207 0.00032294016688534557 0.0005231977840450407 0.0002893454565143563 0.000583944125921207 0.00032294016688534557 0.0005231977840450407 0.0002893454565143563
989.0 -12.317863136199763 -86.89462986498532 -97.21772404118356 -727.6992920017738 0.0021411377362260827 0.0035930160850570344 0.013546016067552527 0.008174245457999732 0.0021411377362260827 0.0035930160850570344 0.013546016067552527 0.008174245457999732
990.0 -2.619087622396078 0.7044668901044533 1.317466261538174 -0.48790299965867223 0.009639969500845736 0.005203742988875339 -0.0021068654048740513 -0.0010891385162975764 0.009639969500845736 0.005203742988875339 -0.0021068654048740513 -0.0010891385162975764
991.0 -445.1723425973403 581.2244222037837 495.49518684472434 -651.9841759690676 1.0991616699631603 1.778268913874611 1.184888565909116 1.9170524761435415 1.0991616699631603 1.778268913874611 1.184888565909116 1.9170524761435415
992.0 -9.439578117001243 7.78950335457759 6.2056949630854055 -13.074647073959548 -0.0020109288851915684 0.0020610389210072608 -0.06793174247966664 0.06285140826058316 -0.0020109288851915684 0.0020610389210072608 -0.06793174247966664 0.06285140826058316
993.0 -2.86248590957116 -2.4102367146791472 -4.202983225505783 -5.124620245426897 -0.0022847940631145723 0.026700459683268417 0.0266881901443296 -0.14345540306560686 -0.0022847940631145723 0.026700459683268417 0.0266881901443296 -0.14345540306560686
994.0 0.03560320075244942 0.18691107250290817 -0.10274564991352267 -0.8207956809545522 0.0375125531899328 0.0630718014239409 0.04973338099115143 0.08647917675550436 0.0375125531899328 0.0630718014239409 0.04973338099115143 0.08647917675550436
995.0 -289.09966992216835 -40.049377767535354 -157.44516788516887 -81.08498114944516 4.7777637146009225e-05 0.0025508406799172796 0.01612607615439337 -0.09988029035683228 4.7777637146009225e-05 0.0025508406799172796 0.01612607615439337 -0.09988029035683228
996.0 -0.6275778874520062 0.5791852069238218 0.4461612771748386 -0.40837364778074425 -0.007198529150715572 0.005473562719995849 0.018876393276573204 0.04307803589719577 -0.007198529150715572 0.005473562719995849 0.018876393276573204 0.04307803589719577
997.0 -0.18938941147359306 -0.06760035835665236 -0.24372895122934962 -0.09403154971299707 -0.002770972904509109 0.003383661838378741 0.0013696318064176731 -0.002809806913415966 -0.002770972904509109 0.003383661838378741 0.0013696318064176731 -0.002809806913415966
998.0 -0.09123148911521817 -0.11040378295550418 -0.04956328410786656 -1.3515751337154778 -0.3377086070107534 0.13264392877876163 0.15975981797618424 -0.045283189854658276 -0.3377086070107534 0.13264392877876163 0.15975981797618424 -0.045283189854658276
999.0 -22.042097321394532 22.034534981153843 27.65816587925548 -41.51547632780827 0.0 0.0 0.0 0.0 0.0 0.0 0.0 0.0
